%chk=ethyl_propiolate.chk 
%nprocshared=24 
%mem=12GB 
# ccsd(t)/6-311++g(d,p) sp 

Title Card Required

0 2
 C                  1.28249300   -1.40349300   -1.16758200
 H                  1.65860300   -2.29556100   -1.62015700
 C                  0.96655200   -0.52127900   -0.30279800
 C                  0.35947900    0.86642700   -0.19758300
 O                  0.96712700    1.84699400   -0.50496600
 O                 -0.83207100    0.92576500    0.38875700
 C                 -1.57790300   -0.27382600    0.67498300
 C                 -2.42155000   -0.67101600   -0.51940600
 H                 -0.90175900   -1.06738300    0.99319400
 H                 -2.19983800    0.00007000    1.52575500
 H                 -3.07440200    0.15178000   -0.81351500
 H                 -1.79257600   -0.94065100   -1.37086000
 H                 -3.03966800   -1.53429300   -0.26450300
 O                  1.35222700   -0.86610500    1.26758600
 H                  2.30681300   -0.72227200    1.28465900

