%chk=ethyl_propiolate.chk 
%nprocshared=24 
%mem=12GB 
# ccsd(t)/6-311++g(d,p) sp 

Title Card Required

0 2
 C                  1.29794400   -1.43146200   -1.14583400
 H                  1.67564800   -2.31351700   -1.60883600
 C                  0.87502800   -0.45607500   -0.57502600
 C                  0.35154600    0.87474700   -0.21375800
 O                  0.97002600    1.85844000   -0.49126700
 O                 -0.82762200    0.92448500    0.39564500
 C                 -1.57427400   -0.27584700    0.67294800
 C                 -2.42278600   -0.66996200   -0.51972800
 H                 -0.89128400   -1.06937500    0.97788200
 H                 -2.19325500   -0.00705100    1.52754100
 H                 -3.07734200    0.15307400   -0.80956400
 H                 -1.79869900   -0.93983400   -1.37357900
 H                 -3.04033200   -1.53295700   -0.26224600
 O                  1.40184200   -0.90728500    1.44617500
 H                  2.35031900   -0.73744900    1.32537200

