%chk=ethyl_propiolate.chk 
%nprocshared=24 
%mem=12GB 
# ccsd(t)/6-311++g(d,p) sp 

Title Card Required

0 2
 C                  1.28944300   -1.41506900   -1.15893100
 H                  1.65372400   -2.29199200   -1.64473800
 C                  0.94028300   -0.50160700   -0.38090700
 C                  0.35674200    0.87078100   -0.19934300
 O                  0.96814100    1.84986700   -0.50186200
 O                 -0.83097600    0.92546100    0.39032800
 C                 -1.57681300   -0.27475800    0.67474700
 C                 -2.42179200   -0.67075600   -0.51942700
 H                 -0.89715000   -1.06685900    0.98985800
 H                 -2.19786600   -0.00171700    1.52632600
 H                 -3.07517800    0.15195800   -0.81261100
 H                 -1.79446200   -0.94064000   -1.37175700
 H                 -3.03964300   -1.53400300   -0.26383300
 O                  1.36524800   -0.87740000    1.31763200
 H                  2.32021100   -0.72683400    1.29384800

