%chk=ethyl_propiolate.chk 
%nprocshared=24 
%mem=12GB 
# ccsd(t)/6-311++g(d,p) sp 

Title Card Required

0 2
 C                  1.29627800   -1.43995600   -1.15160200
 H                  1.69610500   -2.33844200   -1.56146200
 C                  0.83603500   -0.43540100   -0.67765600
 C                  0.34228100    0.88029400   -0.24043800
 O                  0.97219800    1.86783600   -0.47956700
 O                 -0.82231900    0.92251800    0.39894200
 C                 -1.56892800   -0.27901500    0.66928600
 C                 -2.42465600   -0.66802700   -0.52007100
 H                 -0.88347900   -1.07412400    0.96545000
 H                 -2.18323200   -0.01545200    1.52885700
 H                 -3.08003300    0.15671200   -0.80335100
 H                 -1.80702300   -0.93730600   -1.37853200
 H                 -3.04218300   -1.53055600   -0.26086700
 O                  1.42717400   -0.92664400    1.53186500
 H                  2.35743200   -0.71509200    1.34465500

