%chk=ethyl_propiolate.chk 
%nprocshared=24 
%mem=12GB 
# ccsd(t)/6-311++g(d,p) sp 

Title Card Required

0 2
 C                  1.29847500   -1.43635200   -1.14755600
 H                  1.68739800   -2.32649300   -1.58505400
 C                  0.85534400   -0.44501200   -0.62834100
 C                  0.34736700    0.87705800   -0.22555600
 O                  0.97100100    1.86285200   -0.48570000
 O                 -0.82534800    0.92381100    0.39773900
 C                 -1.57234500   -0.27687200    0.67160100
 C                 -2.42347200   -0.66924000   -0.51988800
 H                 -0.88845300   -1.07120300    0.97287900
 H                 -2.18968100   -0.01025800    1.52806900
 H                 -3.07848800    0.15429000   -0.80736900
 H                 -1.80183000   -0.93903200   -1.37539300
 H                 -3.04092800   -1.53207600   -0.26158200
 O                  1.41401900   -0.91653900    1.48804100
 H                  2.35532600   -0.73227600    1.33276700

