%chk=ethyl_propiolate.chk 
%nprocshared=24 
%mem=12GB 
# ccsd(t)/6-311++g(d,p) sp 

Title Card Required

0 2
 C                  1.29372300   -1.42203700   -1.15043900
 H                  1.65736800   -2.29522100   -1.64206700
 C                  0.91437800   -0.48263200   -0.46041500
 C                  0.35541400    0.87271000   -0.20169600
 O                  0.96881000    1.85244300   -0.49867800
 O                 -0.82996100    0.92507000    0.39193500
 C                 -1.57600300   -0.27521700    0.67431500
 C                 -2.42206600   -0.67057400   -0.51951200
 H                 -0.89428800   -1.06718300    0.98570000
 H                 -2.19640500   -0.00332800    1.52676700
 H                 -3.07588000    0.15216400   -0.81173700
 H                 -1.79583400   -0.94053900   -1.37225200
 H                 -3.03979400   -1.53372100   -0.26322300
 O                  1.37917400   -0.88915800    1.36744500
 H                  2.33368100   -0.73299800    1.30707200

