%chk=ethyl_propiolate.chk 
%nprocshared=24 
%mem=12GB 
# ccsd(t)/6-311++g(d,p) sp 

Title Card Required

0 2
 C                 -2.03964000   -1.10915100   -0.85763100
 H                 -2.70789800   -1.82100100   -1.28552000
 C                 -1.22756100   -0.38250000   -0.30800300
 C                 -0.54785600    0.88818000    0.05348100
 O                 -1.16072000    1.77591500    0.56507000
 O                  0.74439600    0.98550300   -0.22288100
 C                  1.51783400   -0.09003000   -0.78965100
 C                  2.60554900   -0.47881000    0.18722100
 H                  0.87562200   -0.93886100   -1.02307700
 H                  1.93226500    0.30736900   -1.71741300
 H                  3.21941300    0.38738200    0.43771400
 H                  2.16141300   -0.88123600    1.09745700
 H                  3.24479300   -1.24243900   -0.26067400
 O                 -0.29890500   -1.51335100    1.01571100
 H                 -1.04557600   -1.66044300    1.61589900

