%chk=ethyl_propiolate.chk 
%nprocshared=24 
%mem=12GB 
# ccsd(t)/6-311++g(d,p) sp 

Title Card Required

0 2
 C                 -2.04304000   -1.09355800   -0.86447800
 H                 -2.70770500   -1.81045000   -1.29186900
 C                 -1.17640500   -0.45697500   -0.21829900
 C                 -0.54681700    0.88297600    0.05685300
 O                 -1.16384800    1.77289900    0.55893300
 O                  0.74412100    0.98696600   -0.22561400
 C                  1.51994400   -0.08908500   -0.79041500
 C                  2.60570900   -0.47876600    0.18770900
 H                  0.88150900   -0.93928300   -1.02756800
 H                  1.93513700    0.30974400   -1.71715300
 H                  3.21978500    0.38706900    0.43900900
 H                  2.15865800   -0.88232900    1.09582200
 H                  3.24503800   -1.24216600   -0.26058000
 O                 -0.33414500   -1.46634800    0.96235700
 H                 -1.04708800   -1.64176400    1.59075000

