%chk=ethyl_propiolate.chk 
%nprocshared=24 
%mem=12GB 
# ccsd(t)/6-311++g(d,p) sp 

Title Card Required

0 2
 C                 -2.03930800   -1.11306300   -0.85679100
 H                 -2.70514200   -1.83100300   -1.27766400
 C                 -1.24367900   -0.35836200   -0.33761600
 C                 -0.54936800    0.89010200    0.05081500
 O                 -1.15928600    1.77728300    0.56769300
 O                  0.74454000    0.98493700   -0.22161800
 C                  1.51689600   -0.09024400   -0.78935200
 C                  2.60551100   -0.47884600    0.18690300
 H                  0.87351600   -0.93853900   -1.02212400
 H                  1.93119500    0.30630900   -1.71756900
 H                  3.21928700    0.38749200    0.43704000
 H                  2.16294100   -0.88069600    1.09820400
 H                  3.24471300   -1.24257900   -0.26083900
 O                 -0.28688400   -1.52957300    1.03437000
 H                 -1.04476000   -1.66623000    1.62409100

