%chk=ethyl_propiolate.chk 
%nprocshared=24 
%mem=12GB 
# ccsd(t)/6-311++g(d,p) sp 

Title Card Required

0 2
 C                 -2.04102600   -1.12277100   -0.86900800
 H                 -2.68272500   -1.89115100   -1.23321500
 C                 -1.30231000   -0.26399700   -0.46543100
 C                 -0.56333300    0.91127800    0.02379500
 O                 -1.14994200    1.78789900    0.58701300
 O                  0.74173100    0.98030600   -0.21150500
 C                  1.50696400   -0.09451500   -0.78673600
 C                  2.60500600   -0.47775600    0.18236000
 H                  0.85939900   -0.94317700   -1.00833100
 H                  1.91440600    0.29518700   -1.72113700
 H                  3.21958900    0.39057000    0.42331700
 H                  2.17281300   -0.87417400    1.10081800
 H                  3.24162000   -1.24298000   -0.26648800
 O                 -0.23006300   -1.60860200    1.12695900
 H                 -1.03984300   -1.66279800    1.66187400

