%chk=ethyl_propiolate.chk 
%nprocshared=24 
%mem=12GB 
# ccsd(t)/6-311++g(d,p) sp 

Title Card Required

0 2
 C                 -2.04067900   -1.10475400   -0.85940900
 H                 -2.70986300   -1.81371400   -1.29113400
 C                 -1.21073500   -0.40714200   -0.27812300
 C                 -0.54694000    0.88668300    0.05512200
 O                 -1.16191400    1.77480200    0.56287800
 O                  0.74424000    0.98601000   -0.22389500
 C                  1.51861200   -0.08980600   -0.78992600
 C                  2.60559500   -0.47881600    0.18741300
 H                  0.87763200   -0.93917100   -1.02419000
 H                  1.93315100    0.30829000   -1.71732000
 H                  3.21960600    0.38722900    0.43811900
 H                  2.16016000   -0.88174200    1.09671900
 H                  3.24479300   -1.24236700   -0.26073000
 O                 -0.31062400   -1.49747600    0.99766300
 H                 -1.04671300   -1.65374600    1.60705700

