%chk=ethyl_propiolate.chk 
%nprocshared=24 
%mem=12GB 
# ccsd(t)/6-311++g(d,p) sp 

Title Card Required

0 2
 C                 -2.04137900   -1.10231900   -0.86062400
 H                 -2.71022000   -1.81146400   -1.29281300
 C                 -1.20212200   -0.41954200   -0.26311200
 C                 -0.54673500    0.88591600    0.05565400
 O                 -1.16243900    1.77431800    0.56188300
 O                  0.74418700    0.98625200   -0.22434000
 C                  1.51896500   -0.08966600   -0.79005100
 C                  2.60561900   -0.47880600    0.18750100
 H                  0.87862800   -0.93927900   -1.02488700
 H                  1.93360700    0.30869300   -1.71727500
 H                  3.21966200    0.38719200    0.43832100
 H                  2.15965500   -0.88192600    1.09642400
 H                  3.24483600   -1.24231200   -0.26071500
 O                 -0.31644200   -1.48965100    0.98880100
 H                 -1.04706000   -1.65046000    1.60278200

