%chk=ethyl_propiolate.chk 
%nprocshared=24 
%mem=12GB 
# ccsd(t)/6-311++g(d,p) sp 

Title Card Required

0 2
 C                  1.77581299   -0.09060541    1.01464110
 H                  2.58770099   -0.45542041    1.60198610
 C                  0.76045199    0.45631359    0.62891310
 C                 -0.36976101    1.09567359   -0.04622490
 O                 -0.24083801    2.14992559   -0.59816590
 O                 -1.53816501    0.45676759   -0.00854290
 C                 -1.63391001   -0.87412141    0.53678610
 C                 -1.15002701   -1.91132741   -0.45683990
 H                 -1.08181601   -0.92253841    1.47795910
 H                 -2.69473601   -0.98920941    0.75255610
 H                 -1.70675301   -1.82401841   -1.39113090
 H                 -0.08371101   -1.79846641   -0.66352590
 H                 -1.31400001   -2.91093741   -0.04871790
 O                  2.35782199   -1.03594441   -0.68124990
 H                  2.45870799   -0.26289241   -1.25931890

