%chk=ethyl_propiolate.chk 
%nprocshared=24 
%mem=12GB 
# ccsd(t)/6-311++g(d,p) sp 

Title Card Required

0 2
 C                  1.82846000   -0.17328700    0.85207200
 H                  2.52932500   -0.41284500    1.63509000
 C                  0.75118400    0.46636100    0.64411200
 C                 -0.36727900    1.09209700   -0.04478400
 O                 -0.23932100    2.15071100   -0.59809000
 O                 -1.53977700    0.45643400   -0.00823400
 C                 -1.63448100   -0.87376100    0.53610400
 C                 -1.14884800   -1.91111800   -0.45647500
 H                 -1.08393600   -0.92238800    1.47901200
 H                 -2.69517500   -0.99040500    0.75202600
 H                 -1.70498400   -1.82378700   -1.39109800
 H                 -0.08205900   -1.79794400   -0.66345500
 H                 -1.31215600   -2.91097300   -0.04876500
 O                  2.32722200   -0.98311600   -0.57801100
 H                  2.44805200   -0.24997300   -1.19599400

