%chk=ethyl_propiolate.chk 
%nprocshared=24 
%mem=12GB 
# ccsd(t)/6-311++g(d,p) sp 

Title Card Required

0 2
 C                  1.77006200   -0.08153600    1.03235600
 H                  2.59089700   -0.45817000    1.59877800
 C                  0.76100500    0.45581400    0.62836300
 C                 -0.36972900    1.09588200   -0.04637600
 O                 -0.24109700    2.14989200   -0.59827800
 O                 -1.53808200    0.45676700   -0.00861800
 C                 -1.63385100   -0.87407300    0.53682200
 C                 -1.15017500   -1.91136100   -0.45686800
 H                 -1.08157700   -0.92252700    1.47780500
 H                 -2.69468700   -0.98918900    0.75255300
 H                 -1.70686300   -1.82404500   -1.39118300
 H                 -0.08392900   -1.79857000   -0.66349600
 H                 -1.31415900   -2.91097300   -0.04874800
 O                  2.36166000   -1.04224000   -0.69321900
 H                  2.46016700   -0.26424700   -1.26564600

