%chk=ethyl_propiolate.chk 
%nprocshared=24 
%mem=12GB 
# ccsd(t)/6-311++g(d,p) sp 

Title Card Required

0 2
 C                  2.24989000   -1.20388300    0.00000300
 H                  3.08880800   -1.86241700    0.00000500
 C                  1.13345700   -0.73036800    0.00000600
 C                  0.00947500    0.19239800    0.00000400
 O                  0.16645400    1.38503900    0.00000900
 O                 -1.16210600   -0.42862700   -0.00000100
 C                 -2.32363600    0.42839600   -0.00000200
 C                 -3.53823300   -0.46950600   -0.00000500
 H                 -2.27972500    1.06763800    0.88391700
 H                 -2.27972200    1.06763800   -0.88392000
 H                 -3.54675600   -1.10507100   -0.88620400
 H                 -3.54675800   -1.10507100    0.88619700
 H                 -4.44354900    0.13975400   -0.00000500
 O                  3.48937600    0.42286500   -0.00001100
 H                  2.82900400    1.13683500   -0.00001500

