%chk=ethyl_propiolate.chk 
%nprocshared=24 
%mem=12GB 
# ccsd(t)/6-311++g(d,p) sp 

Title Card Required

0 2
 C                  2.56834000    0.22189700    0.00000000
 H                  3.62558300    0.08429400    0.00000100
 C                  1.43364100    0.63834500   -0.00000300
 C                  0.01424200    0.95337200   -0.00000500
 O                 -0.44127000    2.06049200   -0.00001000
 O                 -0.70422600   -0.17519700    0.00000000
 C                 -2.13677400   -0.00040500   -0.00000100
 C                 -2.75506000   -1.37836200    0.00000500
 H                 -2.41220700    0.57832400    0.88374000
 H                 -2.41220700    0.57831700   -0.88374700
 H                 -2.45336300   -1.93720200   -0.88684300
 H                 -2.45336300   -1.93719400    0.88685800
 H                 -3.84271600   -1.29077900    0.00000500
 O                  2.34277000   -1.84460800    0.00001000
 H                  1.37241700   -1.89911300    0.00001000

