%chk=ethyl_propiolate.chk 
%nprocshared=24 
%mem=12GB 
# ccsd(t)/6-311++g(d,p) sp 

Title Card Required

0 2
 C                  2.53223100    0.01806900    0.00000100
 H                  3.59986300    0.16399200    0.00000100
 C                  1.44040000    0.66132500   -0.00000300
 C                  0.01493000    0.95127300   -0.00000500
 O                 -0.44047400    2.06032200   -0.00001000
 O                 -0.70330300   -0.17553900    0.00000000
 C                 -2.13707500   -0.00068800   -0.00000100
 C                 -2.75493300   -1.37848700    0.00000500
 H                 -2.41160900    0.57816000    0.88386200
 H                 -2.41160800    0.57815200   -0.88386800
 H                 -2.45311300   -1.93732800   -0.88674400
 H                 -2.45311300   -1.93732100    0.88675900
 H                 -3.84258000   -1.29063500    0.00000500
 O                  2.36236700   -1.71572400    0.00001000
 H                  1.40137600   -1.83225500    0.00001000

