%chk=ethyl_propiolate.chk 
%nprocshared=24 
%mem=12GB 
# ccsd(t)/6-311++g(d,p) sp 

Title Card Required

0 2
 C                  2.19710800   -1.28847400    0.00000500
 H                  3.08572400   -1.87547200    0.00000500
 C                  1.13218900   -0.72902900    0.00000500
 C                  0.00974900    0.19338000    0.00000500
 O                  0.16533900    1.38657100    0.00000800
 O                 -1.16208300   -0.42791100   -0.00000100
 C                 -2.32351800    0.42845600   -0.00000200
 C                 -3.53801200   -0.46972700   -0.00000500
 H                 -2.28007800    1.06785700    0.88385600
 H                 -2.28007500    1.06785900   -0.88385900
 H                 -3.54625600   -1.10539100   -0.88614700
 H                 -3.54625900   -1.10539200    0.88613700
 H                 -4.44356300    0.13919900   -0.00000600
 O                  3.53040100    0.48170600   -0.00001200
 H                  2.83422000    1.16251600   -0.00000900

