%chk=ethyl_propiolate.chk 
%nprocshared=24 
%mem=12GB 
# ccsd(t)/6-311++g(d,p) sp 

Title Card Required

0 2
 C                  2.58519200    0.29748900    0.00000000
 H                  3.63047000    0.09409400    0.00000100
 C                  1.43288200    0.64198500   -0.00000300
 C                  0.01369600    0.95380600   -0.00000500
 O                 -0.44328600    2.06021300   -0.00001000
 O                 -0.70483400   -0.17548400    0.00000000
 C                 -2.13693800   -0.00047300   -0.00000100
 C                 -2.75550400   -1.37830800    0.00000500
 H                 -2.41255000    0.57831200    0.88366400
 H                 -2.41255000    0.57830400   -0.88367000
 H                 -2.45389300   -1.93720900   -0.88687800
 H                 -2.45389300   -1.93720100    0.88689300
 H                 -3.84316500   -1.29092400    0.00000500
 O                  2.33466900   -1.90348300    0.00001100
 H                  1.36207300   -1.91361200    0.00001000

