%chk=ethyl_propiolate.chk 
%nprocshared=24 
%mem=12GB 
# ccsd(t)/6-311++g(d,p) sp 

Title Card Required

0 2
 C                  2.53612600    0.03844000    0.00000100
 H                  3.60570600    0.15748400    0.00000100
 C                  1.43903900    0.65817400   -0.00000300
 C                  0.01453200    0.95156300   -0.00000500
 O                 -0.44042000    2.06047200   -0.00001000
 O                 -0.70322200   -0.17536500    0.00000000
 C                 -2.13707300   -0.00064200   -0.00000100
 C                 -2.75490400   -1.37847500    0.00000500
 H                 -2.41159900    0.57818200    0.88387800
 H                 -2.41159900    0.57817400   -0.88388500
 H                 -2.45309200   -1.93730800   -0.88673900
 H                 -2.45309200   -1.93730000    0.88675400
 H                 -3.84254300   -1.29054400    0.00000500
 O                  2.36042200   -1.72842600    0.00001000
 H                  1.39833300   -1.83869400    0.00001000

