%chk=ethyl_propiolate.chk 
%nprocshared=24 
%mem=12GB 
# ccsd(t)/6-311++g(d,p) sp 

Title Card Required

0 2
 C                  2.54334800    0.07949600    0.00000100
 H                  3.61486800    0.14100400    0.00000100
 C                  1.43705700    0.65184000   -0.00000300
 C                  0.01405900    0.95212400   -0.00000500
 O                 -0.44037300    2.06066000   -0.00001000
 O                 -0.70315300   -0.17512200    0.00000000
 C                 -2.13703400   -0.00055500   -0.00000100
 C                 -2.75486600   -1.37845500    0.00000500
 H                 -2.41162800    0.57822000    0.88389100
 H                 -2.41162800    0.57821200   -0.88389800
 H                 -2.45307500   -1.93727600   -0.88674000
 H                 -2.45307500   -1.93726800    0.88675500
 H                 -3.84249700   -1.29043800    0.00000500
 O                  2.35647500   -1.75352000    0.00001000
 H                  1.39229700   -1.85257300    0.00001000

