%chk=ethyl_propiolate.chk 
%nprocshared=24 
%mem=12GB 
# ccsd(t)/6-311++g(d,p) sp 

Title Card Required

0 2
 C                  2.55002600    0.12075800    0.00000100
 H                  3.62063900    0.12174300    0.00000100
 C                  1.43594200    0.64592900   -0.00000300
 C                  0.01394300    0.95262300   -0.00000500
 O                 -0.44043000    2.06071500   -0.00001000
 O                 -0.70325200   -0.17501800    0.00000000
 C                 -2.13695900   -0.00048600   -0.00000100
 C                 -2.75485800   -1.37844000    0.00000500
 H                 -2.41173000    0.57824800    0.88387400
 H                 -2.41173000    0.57824000   -0.88388100
 H                 -2.45309000   -1.93725800   -0.88675800
 H                 -2.45309000   -1.93725000    0.88677300
 H                 -3.84248900   -1.29045200    0.00000500
 O                  2.35250400   -1.77850100    0.00001000
 H                  1.38638000   -1.86741400    0.00001000

