%chk=h2Oproduct_ccsdt.chk
# ccsd(t)/6-311++g(d,p) sp

Title Card Required

0 1
 O                  0.00000000    0.00000000    0.11659800
 H                  0.00000000    0.76166600   -0.46639100
 H                  0.00000000   -0.76166600   -0.46639100

