%chk=h2Oproduct.chk
# m062x/6-311++g** opt=(tight,calcfc,noeigentest) freq

Title Card Required

0 1
 O                 -1.93860719    1.01943435    0.14076438
 H                 -0.98065903    0.95703050    0.14717461
 H                 -2.19953609    1.94328314    0.13634546

 1 2 1.0 3 1.0
 2
 3

