%chk=ethyl_propiolate_non_planar.chk
%mem=12GB
%nprocshared=24
# ccsd(t)/6-311++g** sp

Title Card Required

0 1
 C                  3.028682   -0.450012    0.287411
 H                  4.039031   -0.738036    0.460584
 C                  1.891843   -0.126548    0.092012
 C                  0.525268    0.322655   -0.138344
 O                  0.196638    1.476469   -0.149836
 O                 -0.291307   -0.712440   -0.336635
 C                 -1.678905   -0.391432   -0.562669
 C                 -2.390695   -0.099634    0.743804
 H                 -2.078941   -1.278809   -1.049863
 H                 -1.734595    0.456458   -1.246325
 H                 -3.452616    0.066113    0.552249
 H                 -2.290475   -0.943337    1.428203
 H                 -1.982209    0.795191    1.213628

