%chk=ethyl_propiolate_planar.chk
%mem=12GB
%nprocshared=24
# ccsd(t)/6-311++g** sp

Title Card Required

0 1
 C                  2.070212    1.626077    0.000001
 H                  2.619101    2.538916    0.000002
 C                  1.461888    0.592783    0.000000
 C                  0.784044   -0.705529   -0.000001
 O                  1.389625   -1.734917   -0.000002
 O                 -0.553137   -0.679936   -0.000000
 C                 -1.258217    0.573706    0.000001
 C                 -2.733552    0.245081    0.000001
 H                 -0.975300    1.144991   -0.887250
 H                 -0.975300    1.144988    0.887254
 H                 -3.317399    1.167021    0.000002
 H                 -2.994633   -0.334898   -0.885597
 H                 -2.994633   -0.334901    0.885597

