%chk=ethyl_propiolate.chk 
%nprocshared=24 
%mem=12GB 
# ccsd(t)/6-311++g(d,p) sp 

Title Card Required

0 2
 C                  1.26127200    2.24953600   -0.05929200
 H                  1.18595100    3.31211800   -0.07433400
 C                  1.35296400    1.05415300   -0.04228500
 C                  1.54601400   -0.39673100    0.00804900
 O                  2.59555600   -0.88354900    0.29917600
 O                  0.48710700   -1.16010800   -0.30052500
 C                 -0.79942000   -0.57035100   -0.56362300
 C                 -1.51329700   -0.26364900    0.72979500
 H                 -0.68638800    0.32099700   -1.18192000
 H                 -1.33253500   -1.32751800   -1.13458000
 H                 -1.69392500   -1.14545600    1.34245600
 H                 -1.08782700    0.56183400    1.29919900
 H                 -2.69811600    0.17354600    0.35272800
 O                 -3.79953400    0.38673900   -0.11430700
 H                 -4.30870500   -0.28125000    0.36679600

