%chk=ethyl_propiolate.chk 
%nprocshared=24 
%mem=12GB 
# ccsd(t)/6-311++g(d,p) sp 

Title Card Required

0 2
 C                  1.26146600    2.24951300   -0.05936600
 H                  1.18627700    3.31194300   -0.07409700
 C                  1.35313100    1.05411700   -0.04239000
 C                  1.54525500   -0.39787900    0.00757200
 O                  2.59611400   -0.88324800    0.29946100
 O                  0.48911300   -1.16027200   -0.30218300
 C                 -0.79606700   -0.57168100   -0.56120300
 C                 -1.50759800   -0.26301500    0.73477600
 H                 -0.68498100    0.31979200   -1.18078600
 H                 -1.33095400   -1.32756300   -1.13317800
 H                 -1.65670100   -1.15405200    1.34433100
 H                 -1.02178100    0.52486000    1.31198800
 H                 -2.51693000    0.16206600    0.45630600
 O                 -3.82614800    0.39206700   -0.12560900
 H                 -4.31475500   -0.28752600    0.36798600

