%chk=ethyl_propiolate.chk 
%nprocshared=24 
%mem=12GB 
# ccsd(t)/6-311++g(d,p) sp 

Title Card Required

0 2
 C                 -2.04012900   -1.11818700   -0.85785200
 H                 -2.70003000   -1.85001000   -1.26316300
 C                 -1.26601700   -0.32399600   -0.38149700
 C                 -0.55281100    0.89471500    0.04436300
 O                 -1.15649500    1.78009400    0.57293700
 O                  0.74447600    0.98384400   -0.21901800
 C                  1.51496200   -0.09080600   -0.78876600
 C                  2.60544700   -0.47888000    0.18611900
 H                  0.87001700   -0.93853000   -1.02013000
 H                  1.92857000    0.30426700   -1.71799400
 H                  3.21927000    0.38778900    0.43491200
 H                  2.16557400   -0.87955400    1.09924200
 H                  3.24431800   -1.24286500   -0.26164300
 O                 -0.26827800   -1.55469900    1.06360800
 H                 -1.04402700   -1.67090900    1.63578100

