%chk=ethyl_propiolate.chk 
%nprocshared=24 
%mem=12GB 
# ccsd(t)/6-311++g(d,p) sp 

Title Card Required

0 2
 C                 -2.04004700   -1.10703200   -0.85835200
 H                 -2.70909300   -1.81686800   -1.28864200
 C                 -1.21924700   -0.39476600   -0.29311800
 C                 -0.54728900    0.88740300    0.05444800
 O                 -1.16135100    1.77532000    0.56391900
 O                  0.74431100    0.98576500   -0.22341700
 C                  1.51823800   -0.08992300   -0.78979200
 C                  2.60557200   -0.47882200    0.18731800
 H                  0.87661600   -0.93901900   -1.02358000
 H                  1.93270200    0.30784600   -1.71737100
 H                  3.21954800    0.38726700    0.43791400
 H                  2.16075600   -0.88153600    1.09705800
 H                  3.24475500   -1.24242700   -0.26074200
 O                 -0.30481000   -1.50535200    1.00659700
 H                 -1.04615900   -1.65719200    1.61152600

