%chk=ethyl_propiolate.chk 
%nprocshared=24 
%mem=12GB 
# ccsd(t)/6-311++g(d,p) sp 

Title Card Required

0 2
 C                 -2.04099500   -1.12086500   -0.86006400
 H                 -2.69551500   -1.86436900   -1.25235500
 C                 -1.27955100   -0.30268900   -0.41031600
 C                 -0.55582900    0.89924300    0.03837900
 O                 -1.15431400    1.78240000    0.57727600
 O                  0.74401600    0.98286800   -0.21680300
 C                  1.51313500   -0.09153000   -0.78823200
 C                  2.60536400   -0.47876100    0.18535000
 H                  0.86727400   -0.93921600   -1.01767600
 H                  1.92561700    0.30234100   -1.71853000
 H                  3.21930000    0.38827900    0.43254600
 H                  2.16748700   -0.87843300    1.09982200
 H                  3.24381200   -1.24296300   -0.26263400
 O                 -0.25554300   -1.57196800    1.08391300
 H                 -1.04357800   -1.67109200    1.64311100

