%chk=ethyl_propiolate.chk 
%nprocshared=24 
%mem=12GB 
# ccsd(t)/6-311++g(d,p) sp 

Title Card Required

0 2
 C                 -2.04138800   -1.12285600   -0.86609600
 H                 -2.68645200   -1.88521100   -1.23704500
 C                 -1.29718000   -0.27324300   -0.45218800
 C                 -0.56134500    0.90800500    0.02754800
 O                 -1.15092300    1.78643600    0.58460700
 O                  0.74246600    0.98099700   -0.21289200
 C                  1.50890000   -0.09352800   -0.78716100
 C                  2.60511800   -0.47814200    0.18336400
 H                  0.86177900   -0.94181700   -1.01134300
 H                  1.91803700    0.29754000   -1.72021400
 H                  3.21947700    0.38977100    0.42638500
 H                  2.17120100   -0.87561700    1.10058200
 H                  3.24234600   -1.24299500   -0.26524700
 O                 -0.23641100   -1.59908300    1.11583800
 H                 -1.04129500   -1.66607600    1.65639800

