%chk=ethyl_propiolate.chk 
%nprocshared=24 
%mem=12GB 
# ccsd(t)/6-311++g(d,p) sp 

Title Card Required

0 2
 C                 -2.03939300   -1.11485500   -0.85678500
 H                 -2.70374900   -1.83654900   -1.27327800
 C                 -1.25145500   -0.34658500   -0.35231300
 C                 -0.55032600    0.89130100    0.04910400
 O                 -1.15845800    1.77810200    0.56920900
 O                  0.74458100    0.98462400   -0.22087800
 C                  1.51634300   -0.09037800   -0.78918300
 C                  2.60549800   -0.47888200    0.18667300
 H                  0.87239800   -0.93842600   -1.02160300
 H                  1.93050200    0.30569900   -1.71768700
 H                  3.21931900    0.38750900    0.43646600
 H                  2.16379800   -0.88039600    1.09855700
 H                  3.24458100   -1.24271700   -0.26106700
 O                 -0.28075500   -1.53783900    1.04393000
 H                 -1.04439000   -1.66834300    1.62824700

