%chk=ethyl_propiolate.chk 
%nprocshared=24 
%mem=12GB 
# ccsd(t)/6-311++g(d,p) sp 

Title Card Required

0 2
 C                 -2.04329400   -1.09005000   -0.86569100
 H                 -2.70539000   -1.81216000   -1.28922000
 C                 -1.16800000   -0.46950200   -0.20351700
 C                 -0.54704500    0.88169900    0.05721700
 O                 -1.16427900    1.77239200    0.55790700
 O                  0.74412100    0.98719800   -0.22604600
 C                  1.52025800   -0.08882700   -0.79054000
 C                  2.60574500   -0.47875100    0.18776300
 H                  0.88243900   -0.93915900   -1.02868300
 H                  1.93573300    0.31006400   -1.71711000
 H                  3.21981500    0.38702000    0.43927900
 H                  2.15849100   -0.88241800    1.09571600
 H                  3.24513500   -1.24212300   -0.26049900
 O                 -0.34018000   -1.45861700    0.95353900
 H                 -1.04675500   -1.63937700    1.58697700

