%chk=ethyl_propiolate.chk 
%nprocshared=24 
%mem=12GB 
# ccsd(t)/6-311++g(d,p) sp 

Title Card Required

0 2
 C                  1.73912700   -0.03124100    1.13255300
 H                  2.58649600   -0.44643300    1.62580500
 C                  0.75892200    0.45991600    0.63626400
 C                 -0.36996000    1.09708500   -0.04663000
 O                 -0.24276100    2.14964700   -0.60035900
 O                 -1.53787600    0.45644200   -0.01002800
 C                 -1.63379100   -0.87361800    0.53678900
 C                 -1.15110700   -1.91163400   -0.45675300
 H                 -1.08097600   -0.92177500    1.47717600
 H                 -2.69465700   -0.98880400    0.75243500
 H                 -1.70720700   -1.82415900   -1.39139200
 H                 -0.08488400   -1.79971400   -0.66328900
 H                 -1.31537300   -2.91120900   -0.04866300
 O                  2.38842500   -1.08403600   -0.77071900
 H                  2.47101000   -0.26726100   -1.29146700

