%chk=ethyl_propiolate.chk 
%nprocshared=24 
%mem=12GB 
# ccsd(t)/6-311++g(d,p) sp 

Title Card Required

0 2
 C                  1.78156400   -0.09967500    0.99692600
 H                  2.58450500   -0.45267100    1.60519400
 C                  0.75989900    0.45681300    0.62946300
 C                 -0.36979300    1.09546600   -0.04607400
 O                 -0.24057900    2.14995900   -0.59805400
 O                 -1.53824800    0.45676800   -0.00846800
 C                 -1.63396900   -0.87417000    0.53675000
 C                 -1.14987900   -1.91129400   -0.45681200
 H                 -1.08205500   -0.92255000    1.47811400
 H                 -2.69478500   -0.98923000    0.75255900
 H                 -1.70664300   -1.82399100   -1.39107900
 H                 -0.08349300   -1.79836300   -0.66355600
 H                 -1.31384100   -2.91090100   -0.04868800
 O                  2.35398400   -1.02964900   -0.66928100
 H                  2.45724900   -0.26153800   -1.25299200

