%chk=ethyl_propiolate.chk 
%nprocshared=24 
%mem=12GB 
# ccsd(t)/6-311++g(d,p) sp 

Title Card Required

0 2
 C                  1.74393000   -0.03914200    1.11680300
 H                  2.58945400   -0.45166100    1.61549400
 C                  0.75967900    0.45850300    0.63352500
 C                 -0.36984300    1.09683600   -0.04676300
 O                 -0.24253200    2.14978300   -0.59984000
 O                 -1.53791700    0.45655500   -0.00965300
 C                 -1.63375700   -0.87369200    0.53680900
 C                 -1.15093400   -1.91159100   -0.45679300
 H                 -1.08099300   -0.92196200    1.47725600
 H                 -2.69461900   -0.98892300    0.75244400
 H                 -1.70713400   -1.82418500   -1.39138100
 H                 -0.08472600   -1.79951700   -0.66330100
 H                 -1.31512300   -2.91116900   -0.04867200
 O                  2.38376900   -1.07678700   -0.75721400
 H                  2.46844600   -0.26679200   -1.28789800

