%chk=ethyl_propiolate.chk 
%nprocshared=24 
%mem=12GB 
# ccsd(t)/6-311++g(d,p) sp 

Title Card Required

0 2
 C                  1.80594900   -0.13684600    0.92511200
 H                  2.56108200   -0.43375700    1.62625900
 C                  0.75513000    0.46157900    0.63528300
 C                 -0.36917800    1.09404000   -0.04532700
 O                 -0.23979100    2.15031900   -0.59801200
 O                 -1.53886600    0.45662900   -0.00835700
 C                 -1.63424900   -0.87415200    0.53642100
 C                 -1.14924400   -1.91120900   -0.45665900
 H                 -1.08317800   -0.92249000    1.47871200
 H                 -2.69500800   -0.98959500    0.75232900
 H                 -1.70579100   -1.82395700   -1.39104500
 H                 -0.08249600   -1.79808200   -0.66351600
 H                 -1.31299100   -2.91087000   -0.04862000
 O                  2.34004600   -1.00619700   -0.62356100
 H                  2.45267100   -0.25453600   -1.22351300

