%chk=ethyl_propiolate.chk 
%nprocshared=24 
%mem=12GB 
# ccsd(t)/6-311++g(d,p) sp 

Title Card Required

0 2
 C                  1.72974200   -0.01587700    1.16281000
 H                  2.57868400   -0.43284000    1.65212900
 C                  0.75695900    0.46356800    0.64338400
 C                 -0.37026500    1.09765300   -0.04605200
 O                 -0.24302400    2.14911900   -0.60167900
 O                 -1.53775200    0.45609600   -0.01102800
 C                 -1.63396400   -0.87349000    0.53669300
 C                 -1.15144300   -1.91176900   -0.45661700
 H                 -1.08116000   -0.92133800    1.47703800
 H                 -2.69486400   -0.98851700    0.75227200
 H                 -1.70729500   -1.82419700   -1.39138700
 H                 -0.08518500   -1.80007900   -0.66320100
 H                 -1.31583000   -2.91133300   -0.04857200
 O                  2.39783700   -1.09860300   -0.79808100
 H                  2.47758000   -0.26869300   -1.29842500

