%chk=ethyl_propiolate.chk 
%nprocshared=24 
%mem=12GB 
# ccsd(t)/6-311++g(d,p) sp 

Title Card Required

0 2
 C                  1.73439300   -0.02349600    1.14786900
 H                  2.58286300   -0.44009500    1.63812600
 C                  0.75801000    0.46161500    0.63956600
 C                 -0.37010300    1.09736000   -0.04639100
 O                 -0.24293300    2.14943100   -0.60096900
 O                 -1.53782100    0.45629000   -0.01048300
 C                 -1.63385700   -0.87355000    0.53675300
 C                 -1.15128000   -1.91169100   -0.45669600
 H                 -1.08102500   -0.92156600    1.47710400
 H                 -2.69473500   -0.98866800    0.75238600
 H                 -1.70726700   -1.82415400   -1.39139300
 H                 -0.08504100   -1.79990500   -0.66326200
 H                 -1.31561600   -2.91126100   -0.04863400
 O                  2.39313500   -1.09132300   -0.78435200
 H                  2.47407700   -0.26792500   -1.29499100

