%chk=ethyl_propiolate.chk 
%nprocshared=24 
%mem=12GB 
# ccsd(t)/6-311++g(d,p) sp 

Title Card Required

0 2
 C                  1.82323600   -0.16435800    0.87044500
 H                  2.53754200   -0.41767800    1.63494900
 C                  0.75183700    0.46535100    0.64172800
 C                 -0.36786500    1.09260300   -0.04489300
 O                 -0.23940900    2.15063900   -0.59807000
 O                 -1.53953900    0.45648300   -0.00826600
 C                 -1.63442400   -0.87388800    0.53618300
 C                 -1.14893100   -1.91113900   -0.45652400
 H                 -1.08377300   -0.92241800    1.47897600
 H                 -2.69512900   -0.99016200    0.75213900
 H                 -1.70519800   -1.82382100   -1.39107000
 H                 -0.08212000   -1.79797300   -0.66348900
 H                 -1.31237000   -2.91093500   -0.04871800
 O                  2.33038400   -0.98896400   -0.58953300
 H                  2.44928500   -0.25071200   -1.20240500

