%chk=ethyl_propiolate.chk 
%nprocshared=24 
%mem=12GB 
# ccsd(t)/6-311++g(d,p) sp 

Title Card Required

0 2
 C                  1.75909200   -0.06398200    1.06710100
 H                  2.59328500   -0.45946800    1.59868400
 C                  0.76106300    0.45598800    0.62880300
 C                 -0.36967800    1.09623700   -0.04666700
 O                 -0.24168600    2.14988600   -0.59873100
 O                 -1.53800600    0.45672700   -0.00891000
 C                 -1.63378700   -0.87392700    0.53681200
 C                 -1.15043700   -1.91147900   -0.45685100
 H                 -1.08131500   -0.92237400    1.47755300
 H                 -2.69465200   -0.98916500    0.75239000
 H                 -1.70689600   -1.82422700   -1.39130500
 H                 -0.08424400   -1.79894500   -0.66334400
 H                 -1.31444700   -2.91107100   -0.04867900
 O                  2.37016100   -1.05558100   -0.71799000
 H                  2.46299800   -0.26565300   -1.27584000

