%chk=ethyl_propiolate.chk 
%nprocshared=24 
%mem=12GB 
# ccsd(t)/6-311++g(d,p) sp 

Title Card Required

0 2
 C                  1.79365800   -0.11816900    0.96115000
 H                  2.57444600   -0.44402900    1.61591100
 C                  0.75781000    0.45889100    0.63190500
 C                 -0.36967300    1.09486300   -0.04571900
 O                 -0.24014700    2.15009400   -0.59800100
 O                 -1.53850100    0.45671200   -0.00841800
 C                 -1.63412600   -0.87422000    0.53657500
 C                 -1.14950900   -1.91126100   -0.45673800
 H                 -1.08269700   -0.92252900    1.47842900
 H                 -2.69492900   -0.98936500    0.75237100
 H                 -1.70615900   -1.82405000   -1.39107300
 H                 -0.08291500   -1.79819300   -0.66348600
 H                 -1.31338700   -2.91087100   -0.04860200
 O                  2.34677600   -1.01771500   -0.64617300
 H                  2.45503000   -0.25799800   -1.23846600

