%chk=ethyl_propiolate.chk 
%nprocshared=24 
%mem=12GB 
# ccsd(t)/6-311++g(d,p) sp 

Title Card Required

0 2
 C                  1.78752200   -0.10885600    0.97908400
 H                  2.58002000   -0.44864200    1.61038700
 C                  0.75901500    0.45770000    0.63052200
 C                 -0.36978900    1.09520300   -0.04591200
 O                 -0.24035300    2.15000800   -0.59801400
 O                 -1.53835700    0.45674800   -0.00844300
 C                 -1.63406000   -0.87421300    0.53665300
 C                 -1.14966800   -1.91128500   -0.45677300
 H                 -1.08243500   -0.92253800    1.47827400
 H                 -2.69488700   -0.98930000    0.75236900
 H                 -1.70632700   -1.82410300   -1.39110600
 H                 -0.08316500   -1.79827600   -0.66345900
 H                 -1.31357000   -2.91088700   -0.04860600
 O                  2.35028200   -1.02358700   -0.65761000
 H                  2.45630200   -0.25986700   -1.24595200

