%chk=ethyl_propiolate.chk 
%nprocshared=24 
%mem=12GB 
# ccsd(t)/6-311++g(d,p) sp 

Title Card Required

0 2
 C                  1.72517500   -0.00838900    1.17739800
 H                  2.57410400   -0.42490500    1.66735800
 C                  0.75577100    0.46577900    0.64776400
 C                 -0.37043500    1.09795500   -0.04560900
 O                 -0.24300800    2.14868900   -0.60250000
 O                 -1.53765900    0.45585600   -0.01167200
 C                 -1.63411600   -0.87344100    0.53660100
 C                 -1.15158400   -1.91187800   -0.45651000
 H                 -1.08139900   -0.92108700    1.47697900
 H                 -2.69505500   -0.98835200    0.75206700
 H                 -1.70727200   -1.82431700   -1.39137400
 H                 -0.08530500   -1.80022700   -0.66308500
 H                 -1.31598900   -2.91142900   -0.04845600
 O                  2.40248600   -1.10583100   -0.81191700
 H                  2.48128700   -0.26945200   -1.30171300

