%nprocshared=4
%mem=150MW
%chk=ethyl_propiolate.chk
# ccsd(t)/6-311++g(d,p) sp

Title Card Required

0 2
 C                  2.06726000    1.63025700   -0.03253100
 H                  2.62234800    2.53922500   -0.04970100
 C                  1.44820100    0.60398900   -0.01618500
 C                  0.76925900   -0.68758800    0.00041800
 O                  1.35542600   -1.72587700    0.01433200
 O                 -0.57996800   -0.65809400   -0.00588900
 C                 -1.29147500    0.52185800    0.02494900
 C                 -2.75661200    0.32504500   -0.04042600
 H                 -0.82521800    1.35204700    0.53985900
 H                 -3.02341600   -0.29096600   -0.90233600
 H                 -3.13959200   -0.17901000    0.85662700
 H                 -3.25758200    1.28910800   -0.12934100

