%chk=ethyl_propiolate.chk
%nprocshared=24
%mem=12GB
# opt=(calcfc,tight,noeigentest) freq 6-31+g m062x

Title Card Required

0 2
 C                  2.39050024    0.07140397   -0.29376384
 C                  1.19965316    0.22794839   -0.30984236
 C                 -0.32707428    0.42864320   -0.33045611
 O                 -0.81045230    1.58775462   -0.25060028
 O                 -1.11730213   -0.60039620   -0.43045390
 C                 -2.53497760   -0.41403670   -0.44959562
 C                 -3.07842294   -0.46123292    0.99055704
 H                 -2.98912438   -1.19139448   -1.02783916
 H                 -2.76402031    0.53555706   -0.88630045
 H                 -4.13920109   -0.32178910    0.97623422
 H                 -2.84938022   -1.41082669    1.42726188
 H                 -2.62427615    0.31612485    1.56880058

