%chk=ethyl_propiolate.chk
# ccsd(t)/6-311++g(d,p) sp

Title Card Required

0 2
 C                  1.23907000    1.99280500   -0.11715600
 H                  1.46920800    3.03163000   -0.16295500
 C                  0.98577300    0.82217800   -0.06001900
 C                  0.77060800   -0.62453000    0.02379100
 O                  1.64393900   -1.37322400    0.34235800
 O                 -0.44950000   -1.07550400   -0.29965800
 C                 -1.51678800   -0.14337000   -0.55747500
 C                 -1.99097600    0.50431700    0.68964400
 H                 -1.19901200    0.59244900   -1.30021300
 H                 -2.28811100   -0.77185400   -1.01304700
 H                 -2.10880600   -0.09195200    1.58439700
 H                 -2.35491700    1.52114600    0.67751400

