%nprocshared=24
%mem=12GB
%chk=ethyl_propiolate.chk
# opt=(calcfc,tight,noeigentest) freq 6-31+g m062x

Title Card Required

0 2
 C                 -3.34469790    1.18756482    0.16930545
 H                 -4.25527234    1.78290386    0.33791343
 C                 -2.35464456    0.54048180   -0.01418353
 C                 -1.08274289   -0.29080797   -0.24991166
 O                 -1.18618754   -1.47143211   -0.68484722
 O                  0.08380769    0.22702142    0.00861606
 C                  1.26580635   -0.56026694   -0.18184422
 C                  1.80663109   -1.46951977    0.94207135
 H                  1.77774731   -0.50973159   -1.11632518
 H                  2.87533905   -1.55470070    0.84415652
 H                  1.55630535   -1.05059540    1.89295809
 H                  1.37668166   -2.43900192    0.86418807

