%chk=ethyl_propiolate.chk
%nprocshared=24
%mem=12GB
# opt=(calcfc,tight,ts,noeigentest) freq 6-311++g(d,p) m062x

Title Card Required

0 2
 C                 -3.36157173    0.66088313   -0.25137403
 H                 -4.32245699    1.04823340   -0.51894698
 C                 -2.28291179    0.22635753    0.04956298
 C                 -0.90000998   -0.33072828    0.43538092
 O                 -0.38503999   -0.02517917    1.54218466
 O                 -0.26399819   -1.11743380   -0.38313700
 C                  1.02001008   -1.63491292   -0.02476048
 C                  2.11656618   -0.66842872   -0.50960170
 H                  1.15961148   -2.59158879   -0.48320244
 H                  1.07927455   -1.73696833    1.03871212
 H                  3.03845484   -0.59215271    0.02816995
 H                  1.95656533   -0.07319030   -1.38423335

