%chk=ethyl_propiolate.chk 
%nprocshared=24 
%mem=12GB 
# ccsd(t)/6-311++g(d,p) sp 

Title Card Required

0 2
 C                  2.18304900   -0.41145800   -0.06316200
 H                  3.39296400   -0.87206600   -0.12519000
 C                  1.07521300    0.06655500   -0.01768800
 C                 -0.27937700    0.61386000   -0.00379700
 O                 -0.51703500    1.78917700    0.01212300
 O                 -1.19255900   -0.35425000   -0.01013100
 C                 -2.56591200    0.08430900    0.00855400
 C                 -3.42709500   -1.15714900   -0.00407900
 H                 -2.72338100    0.68927900    0.90387700
 H                 -2.73897300    0.71852400   -0.86330300
 H                 -3.23700100   -1.74630300   -0.90195300
 H                 -3.21996700   -1.77607200    0.86965700
 H                 -4.48087200   -0.87377400    0.01060400
 O                  4.50003700   -0.60410600    0.08798300
 H                  4.60859200    0.24687100   -0.36671100

