%chk=ethyl_propiolate.chk 
%nprocshared=24 
%mem=12GB 
# ccsd(t)/6-311++g(d,p) sp 

Title Card Required

0 2
 C                  2.17715300   -0.40934100   -0.06155100
 H                  3.55851900   -0.93755300   -0.16745200
 C                  1.07110500    0.06992700   -0.01680000
 C                 -0.28154500    0.61396700   -0.00431500
 O                 -0.51713300    1.78936600    0.01219600
 O                 -1.19292700   -0.35425300   -0.01016700
 C                 -2.56629900    0.08426500    0.00855800
 C                 -3.42718000   -1.15719700   -0.00407800
 H                 -2.72348900    0.68916100    0.90394200
 H                 -2.73908900    0.71848700   -0.86333800
 H                 -3.23708300   -1.74629900   -0.90197800
 H                 -3.22003600   -1.77605600    0.86968300
 H                 -4.48094100   -0.87387300    0.01060200
 O                  4.50032200   -0.60373000    0.08970700
 H                  4.59802600    0.23751400   -0.37651500

