%chk=ethyl_propiolate.chk 
%nprocshared=24 
%mem=12GB 
# ccsd(t)/6-311++g(d,p) sp 

Title Card Required

0 2
 C                  2.17034300   -0.40653200   -0.05845700
 H                  3.70708000   -1.04731400   -0.26287100
 C                  1.06585200    0.07340900   -0.01558400
 C                 -0.28406900    0.61471300   -0.00496900
 O                 -0.51822000    1.79020600    0.01229900
 O                 -1.19406900   -0.35424500   -0.01030200
 C                 -2.56694100    0.08419900    0.00859000
 C                 -3.42747600   -1.15728100   -0.00411500
 H                 -2.72408000    0.68900200    0.90404800
 H                 -2.73983700    0.71857300   -0.86319800
 H                 -3.23726700   -1.74627300   -0.90207600
 H                 -3.22010800   -1.77614700    0.86959900
 H                 -4.48131100   -0.87428500    0.01064200
 O                  4.50590600   -0.60191200    0.09438000
 H                  4.58366000    0.22294500   -0.39882500

