%chk=ethyl_propiolate.chk 
%nprocshared=24 
%mem=12GB 
# ccsd(t)/6-311++g(d,p) sp 

Title Card Required

0 2
 C                  3.27844300   -0.52336900   -0.44109400
 H                  4.27153900   -0.79109200   -0.71721900
 C                  2.16131000   -0.22347300   -0.13011900
 C                  0.82051400    0.18224900    0.25860500
 O                  0.56207400    1.24195300    0.76743700
 O                 -0.06883500   -0.76764800   -0.01752400
 C                 -1.42178500   -0.50419900    0.37039300
 C                 -2.29192500   -1.64269300   -0.08466200
 H                 -1.45880000   -0.31400400    1.44487800
 H                 -1.76630900    0.41071500   -0.14757000
 H                 -2.21371900   -1.76921000   -1.16501200
 H                 -2.00788700   -2.57689800    0.40262900
 H                 -3.33021700   -1.41796500    0.16405300
 O                 -1.91916900    1.82778600   -0.71624600
 H                 -1.18521100    2.20261100   -0.19437400

