%chk=ethyl_propiolate.chk 
%nprocshared=24 
%mem=12GB 
# ccsd(t)/6-311++g(d,p) sp 

Title Card Required

0 2
 C                  3.27844600   -0.52328800   -0.44108600
 H                  4.27153500   -0.79105300   -0.71718900
 C                  2.16133100   -0.22330000   -0.13010600
 C                  0.82022100    0.18191200    0.25846100
 O                  0.56150900    1.24186500    0.76692600
 O                 -0.06831700   -0.76854500   -0.01725000
 C                 -1.42190200   -0.50679300    0.37209600
 C                 -2.29151400   -1.64545100   -0.08408900
 H                 -1.45768300   -0.31988900    1.44714100
 H                 -1.76700900    0.40592800   -0.14221300
 H                 -2.21347600   -1.77043500   -1.16464400
 H                 -2.00787800   -2.58021700    0.40204500
 H                 -3.32981700   -1.42059200    0.16468200
 O                 -1.91931200    1.83388000   -0.71807100
 H                 -1.18355300    2.20441900   -0.19547300

