%chk=ethyl_propiolate.chk 
%nprocshared=24 
%mem=12GB 
# ccsd(t)/6-311++g(d,p) sp 

Title Card Required

0 2
 C                  3.27808100   -0.52374700   -0.44103100
 H                  4.27163700   -0.79050600   -0.71716300
 C                  2.16043600   -0.22521300   -0.13048000
 C                  0.82575700    0.18786100    0.26085500
 O                  0.56614400    1.24107000    0.77141700
 O                 -0.08100800   -0.75940100   -0.02003200
 C                 -1.41287300   -0.49179800    0.35800600
 C                 -2.29524900   -1.61595000   -0.09184800
 H                 -1.47610300   -0.20985100    1.40996800
 H                 -1.79607000    0.73988600   -0.29468400
 H                 -2.21428900   -1.76424700   -1.16915000
 H                 -1.99476700   -2.54145200    0.41126800
 H                 -3.33348000   -1.40124800    0.16087300
 O                 -1.91439200    1.75838300   -0.69319500
 H                 -1.20931800    2.19419200   -0.19497900

