%chk=ethyl_propiolate.chk 
%nprocshared=24 
%mem=12GB 
# ccsd(t)/6-311++g(d,p) sp 

Title Card Required

0 2
 C                  3.27815200   -0.52373300   -0.44103300
 H                  4.27161900   -0.79061500   -0.71711700
 C                  2.16061400   -0.22504900   -0.13046300
 C                  0.82452900    0.18655700    0.26039200
 O                  0.56585000    1.24140200    0.77116400
 O                 -0.07827700   -0.76026600   -0.01965200
 C                 -1.41706300   -0.48403100    0.35548400
 C                 -2.29486500   -1.61838400   -0.09091800
 H                 -1.47233000   -0.23419000    1.41686200
 H                 -1.76560600    0.57674400   -0.22468000
 H                 -2.21443200   -1.76328500   -1.16852900
 H                 -1.99641400   -2.54322900    0.41068200
 H                 -3.33323400   -1.40174500    0.16059500
 O                 -1.91567800    1.76788300   -0.69692900
 H                 -1.20325700    2.19059700   -0.19009900

