%chk=ethyl_propiolate.chk 
%nprocshared=24 
%mem=12GB 
# ccsd(t)/6-311++g(d,p) sp 

Title Card Required

0 2
 C                  3.27842500   -0.52349900   -0.44110700
 H                  4.27155000   -0.79110000   -0.71726200
 C                  2.16124100   -0.22382500   -0.13016100
 C                  0.82107200    0.18286200    0.25888100
 O                  0.56310500    1.24206300    0.76841200
 O                 -0.06995400   -0.76592400   -0.01803200
 C                 -1.42159300   -0.49879100    0.36690200
 C                 -2.29263900   -1.63724400   -0.08581900
 H                 -1.46115700   -0.30125500    1.43997500
 H                 -1.76383900    0.41998000   -0.15747900
 H                 -2.21411400   -1.76685500   -1.16575800
 H                 -2.00716900   -2.56985700    0.40400300
 H                 -3.33095500   -1.41299000    0.16286400
 O                 -1.91881300    1.81568700   -0.71257500
 H                 -1.18860000    2.19911600   -0.19219700

