%chk=ethyl_propiolate.chk 
%nprocshared=24 
%mem=12GB 
# ccsd(t)/6-311++g(d,p) sp 

Title Card Required

0 2
 C                  3.27843800   -0.52343500   -0.44110600
 H                  4.27154800   -0.79109500   -0.71724900
 C                  2.16128200   -0.22365100   -0.13013800
 C                  0.82078800    0.18254100    0.25874300
 O                  0.56260400    1.24201100    0.76794200
 O                 -0.06935700   -0.76678600   -0.01777900
 C                 -1.42172900   -0.50143000    0.36860300
 C                 -2.29229100   -1.63996100   -0.08523200
 H                 -1.46002600   -0.30738700    1.44231400
 H                 -1.76481000    0.41450100   -0.15232200
 H                 -2.21392600   -1.76798200   -1.16538700
 H                 -2.00756000   -2.57329400    0.40336500
 H                 -3.33059100   -1.41534500    0.16341900
 O                 -1.91901900    1.82174400   -0.71441900
 H                 -1.18696500    2.20080500   -0.19318300

