%chk=ethyl_propiolate.chk 
%nprocshared=24 
%mem=12GB 
# ccsd(t)/6-311++g(d,p) sp 

Title Card Required

0 2
 C                  3.27840900   -0.52355100   -0.44111100
 H                  4.27155600   -0.79107500   -0.71727200
 C                  2.16119300   -0.22400200   -0.13018900
 C                  0.82134900    0.18315800    0.25901700
 O                  0.56357200    1.24208700    0.76887100
 O                 -0.07058300   -0.76509500   -0.01826800
 C                 -1.42148000   -0.49604600    0.36514300
 C                 -2.29295000   -1.63456400   -0.08640800
 H                 -1.46236400   -0.29456600    1.43741900
 H                 -1.76232700    0.42526100   -0.16219600
 H                 -2.21426600   -1.76578900   -1.16612900
 H                 -2.00646900   -2.56623000    0.40475600
 H                 -3.33129800   -1.41073500    0.16232800
 O                 -1.91859100    1.80967300   -0.71072500
 H                 -1.19028700    2.19746600   -0.19120000

