%chk=ethyl_propiolate.chk 
%nprocshared=24 
%mem=12GB 
# ccsd(t)/6-311++g(d,p) sp 

Title Card Required

0 2
 C                  3.27809100   -0.52374500   -0.44103100
 H                  4.27163600   -0.79052300   -0.71715700
 C                  2.16046300   -0.22518800   -0.13048000
 C                  0.82557700    0.18767600    0.26079200
 O                  0.56610400    1.24110900    0.77137600
 O                 -0.08059300   -0.75954100   -0.01996600
 C                 -1.41361900   -0.49016300    0.35740800
 C                 -2.29520300   -1.61630000   -0.09171900
 H                 -1.47547000   -0.21394300    1.41114500
 H                 -1.79042300    0.71292800   -0.28264200
 H                 -2.21431400   -1.76409200   -1.16904300
 H                 -1.99488500   -2.54158400    0.41127800
 H                 -3.33344400   -1.40132200    0.16082200
 O                 -1.91458800    1.75966400   -0.69372100
 H                 -1.20827800    2.19316200   -0.19397600

