%chk=ethyl_propiolate.chk
%nprocshared=4
%mem=150MW
# irc=(calcfc,maxpoints=10,maxcycle=900,stepsize=5) 6-311++g(d,p) geom=connectivity m062x
geom=connectivity

Title Card Required

0 2
 C                 -1.66353000   -0.23607900   -0.05401200
 H                 -2.96027300   -0.83797300    0.02643800
 C                 -0.63350500    0.39795300   -0.04349500
 C                  0.64045400    1.12574600    0.01418500
 O                  0.67316600    2.27461000    0.33962500
 O                  1.74201000    0.45716100   -0.32614000
 C                  1.69958800   -0.95046400   -0.62367800
 C                  1.75325600   -1.77492300    0.64690500
 H                  0.81175100   -1.17494500   -1.21758800
 H                  2.58101700   -1.11466300   -1.24141000
 H                  2.63964200   -1.51648000    1.22773900
 H                  0.86711800   -1.60582000    1.26079600
 H                  1.79722000   -2.83666000    0.39634600
 O                 -3.96974100   -0.54275400   -0.08998800
 H                 -4.07752700    0.20100500    0.52027400

 1 3 3.0
 2
 3 4 1.0
 4 5 2.0 6 1.5
 5
 6 7 1.0
 7 8 1.0 9 1.0 10 1.0
 8 11 1.0 12 1.0 13 1.0
 9
 10
 11
 12
 13
 14 15 1.0
 15

