%nprocshared=4
%mem=150MW
%chk=ethyl_propiolate.chk
# opt=(calcfc,tight,ts,noeigentest) freq 6-311++g(d,p) m062x

Title Card Required

0 2
 O                 -3.09459729   -0.49123961   -0.62922303
 H                 -2.70355729   -1.35284661   -0.38251403
 C                  2.62838226    2.91792960   -1.54997302
 H                  3.21989758    3.76983019   -1.79106689
 C                  1.96228136    1.95992849   -1.27839228
 C                  1.20143545    0.76576074   -0.93568053
 O                  1.70045491   -0.25073900   -0.53929139
 O                 -0.10470734    0.96265330   -1.11667792
 C                 -0.96202212   -0.15883403   -0.82198613
 C                 -0.96913436   -1.15468416   -1.96518110
 H                 -2.07531830    0.35145909   -0.65284050
 H                 -0.62704995   -0.61996446    0.10782929
 H                 -1.68110529   -1.95365310   -1.74933946
 H                 -1.26890277   -0.66600049   -2.89340950
 H                  0.01769211   -1.59921500   -2.09507733

