%chk=ethyl_propiolate.chk
%nprocshared=24
%mem=12GB
# opt=(calcfc,tight,ts,noeigentest) freq 6-311++g(d,p) m062x

Title Card Required

0 2
 O                  4.55791900   -0.25438200    0.32160900
 H                  4.60031400    0.64390200   -0.03650700
 C                  2.25985700   -0.31060300   -0.07617400
 H                  3.65054800   -0.64407600   -0.06065600
 C                  1.10167100    0.02704800   -0.10552000
 C                 -0.30522000    0.40310000   -0.18943300
 O                 -0.69101100    1.53178700   -0.06261500
 O                 -1.07367100   -0.65706200   -0.42439500
 C                 -2.49260100   -0.40651300   -0.50963700
 C                 -3.10717900   -0.28415400    0.87063500
 H                 -2.87942800   -1.26920800   -1.04876300
 H                 -2.65255700    0.49554600   -1.10125900
 H                 -4.18906300   -0.17049700    0.77925000
 H                 -2.90200200   -1.17948100    1.45919300
 H                 -2.71287400    0.58779300    1.39272000

