%nprocshared=24
%mem=12GB
%chk=ethyl_propiolate.chk
# ccsd(t)/6-311++g** sp

Title Card Required

0 2
 O                 -2.595129   -1.769496   -0.298963
 H                 -1.805777   -2.288558   -0.009298
 C                  3.217872   -1.019682    0.419736
 H                  4.099371   -1.564467    0.671814
 C                  2.224118   -0.396305    0.131923
 C                  1.067003    0.382033   -0.226675
 O                  1.090529    1.501499   -0.728766
 O                 -0.095193   -0.278252    0.062965
 C                 -1.346980    0.377886   -0.274950
 C                 -1.855897    1.247141    0.842290
 H                 -2.101563   -0.577588   -0.400923
 H                 -1.276012    0.850278   -1.256646
 H                 -2.852838    1.622579    0.598985
 H                 -1.913447    0.677201    1.772482
 H                 -1.188085    2.104111    0.987761

