%chk=ethyl_propiolate.chk
# irc=(calcfc,maxpoints=10,maxcycle=900,stepsize=5) 6-311++g(d,p) geom=connectivity m062x
geom=connectivity

Title Card Required

0 2
 C                  1.34638700    2.23684200   -0.06773800
 H                  1.27106000    3.29933300   -0.08259600
 C                  1.43808600    1.04146100   -0.05074300
 C                  1.63061700   -0.40996800   -0.00058900
 O                  2.68083700   -0.89614200    0.29085300
 O                  0.57288500   -1.17273300   -0.30951700
 C                 -0.71273100   -0.58369000   -0.57095200
 C                 -1.42981200   -0.27505700    0.72199000
 H                 -0.60078500    0.30776400   -1.18994900
 H                 -1.24667200   -1.34020200   -1.14256500
 H                 -1.58994900   -1.16126900    1.33517600
 H                 -0.97584800    0.53336700    1.29547000
 H                 -2.49339400    0.14098000    0.40180000
 O                 -3.72562300    0.37643400   -0.12756000
 H                 -4.22449300   -0.29797300    0.36065700

 1 2 1.0 3 3.0
 2
 3 4 1.0
 4 5 2.0 6 1.5
 5
 6 7 1.0
 7 8 1.0 9 1.0 10 1.0
 8 11 1.0 12 1.0
 9
 10
 11
 12
 13
 14 15 1.0
 15

