%chk=ethyl_propiolate.chk
# opt=(calcfc,tight,ts,noeigentest) freq 6-311++g(d,p) m062x

Title Card Required

0 2
 C                  1.33934300    2.25050600   -0.05734900
 H                  1.26085600    3.31611000   -0.06719700
 C                  1.43499000    1.04861100   -0.04664300
 C                  1.63338000   -0.40341500   -0.00482000
 O                  2.69425300   -0.89050600    0.27603400
 O                  0.57611000   -1.17377300   -0.30523400
 C                 -0.71270500   -0.59132800   -0.56547000
 C                 -1.44140400   -0.31343000    0.72935400
 H                 -0.60408100    0.31494400   -1.16674600
 H                 -1.23682900   -1.34252800   -1.15689300
 H                 -1.60528200   -1.21474100    1.32262700
 H                 -0.99059800    0.48254800    1.32598500
 H                 -2.50177300    0.11165500    0.40918700
 O                 -3.71873400    0.39667100   -0.13599100
 H                 -4.25694000   -0.27278400    0.32412200

