%oldchk=C:\G09W\Scratch\ethyl_propiolate.chk
%nprocshared=4
%mem=150MW
%chk=ethyl_propiolate_ts1.chk
# opt=(calcfc,tight,noeigentest) freq 6-311++g(d,p) m062x

Title Card Required

0 2
 C                 -1.77884000    0.13856800    0.01133400
 H                 -2.78092300   -0.24397900    0.01556300
 C                 -0.65649000    0.58131700    0.00630400
 C                  0.67781100    1.18358400   -0.00006300
 O                  0.84459800    2.37405900   -0.00275300
 O                  1.71904300    0.33855900   -0.00283500
 C                  1.50262800   -1.08267800    0.00004400
 C                  2.86835200   -1.73336100   -0.00333500
 H                  0.92938700   -1.35881700    0.89076200
 H                  0.92382600   -1.36140000   -0.88627400
 H                  3.43056200   -1.43831500   -0.89213700
 H                  3.43583900   -1.43642300    0.88147000
 H                  2.75952600   -2.82097900   -0.00182100
 O                 -4.89857900   -0.90103700    0.00857400
 H                 -5.69948100   -0.35732400   -0.11716700

