%nprocshared=4
%mem=150MW
%chk=ethyl_propiolate.chk
# uccsd(t)/6-311++g(d,p) sp

Title Card Required

0 2
 C                  2.84120500   -0.04251000    0.00000700
 H                  3.82335900    0.36985500    0.00001300
 C                  1.73587200   -0.50509000    0.00000200
 C                  0.37603400   -1.01921700   -0.00000600
 O                  0.07169400   -2.17576100   -0.00002000
 O                 -0.50042300   -0.00109300    0.00000300
 C                 -1.89720300   -0.36653200   -0.00000400
 C                 -2.68856000    0.92046200    0.00000800
 H                 -2.09241900   -0.97554400   -0.88448500
 H                 -2.09242300   -0.97556200    0.88446400
 H                 -2.46063600    1.51290200    0.88754800
 H                 -2.46063300    1.51292000   -0.88751900
 H                 -3.75621500    0.69604700    0.00000400
 O                  1.22376700    2.44176800    0.00000700
 H                  0.47457000    1.81739400    0.00000800

