%nprocshared=4
%mem=150MW
%chk=ethyl_propiolate.chk
# opt=(calcfc,tight,noeigentest) freq 6-311++g(d,p) m062x

Title Card Required

0 2
 C                  2.85255900    0.05239700   -0.00002100
 H                  3.83993400   -0.35630200   -0.00002900
 C                  1.73759000    0.50910000   -0.00001200
 C                  0.37429000    1.01782600    0.00000200
 O                  0.06370000    2.18015800    0.00001800
 O                 -0.50197800   -0.00303800   -0.00000500
 C                 -1.89814100    0.36530700    0.00000800
 C                 -2.69345900   -0.92083100   -0.00001900
 H                 -2.09119000    0.97616400    0.88603100
 H                 -2.09119700    0.97620400   -0.88598500
 H                 -2.46770900   -1.51539400   -0.88887400
 H                 -2.46770300   -1.51543500    0.88880800
 H                 -3.76206900   -0.69280500   -0.00001000
 O                  1.22890800   -2.45113100    0.00002300
 H                  0.47786200   -1.82313900    0.00002100

