%nprocshared=4
%mem=150MW
%chk=ethyl_propiolate.chk
# opt=(calcfc,tight,noeigentest) freq 6-311++g(d,p) m062x

Title Card Required

0 2
 C                  2.09036500    1.81737300    0.00000300
 H                  2.90027800    2.51426100   -0.00000500
 C                  1.18420900    1.02369500    0.00001200
 C                  0.18121500   -0.02858000    0.00001900
 O                  0.46520000   -1.20890300    0.00003300
 O                 -1.05681200    0.44647000    0.00000700
 C                 -2.10772000   -0.54409600    0.00001100
 C                 -3.42142400    0.20368000   -0.00003300
 H                 -1.98519400   -1.17401400   -0.88562200
 H                 -1.98522800   -1.17396900    0.88568000
 H                 -3.50620900    0.83498100    0.88744100
 H                 -3.50617700    0.83493300   -0.88754400
 H                 -4.24908900   -0.50992300   -0.00002900
 O                  3.38212600   -1.08425600   -0.00003800
 H                  2.44763500   -1.38518500   -0.00000600

