%chk=ethyl_propiolate_non_planar.chk
%mem=12GB
%nprocshared=24
# opt=(calcfc,tight,noeigentest) freq 6-311++g** m062x

Title Card Required

0 1
 C                 -1.423441    1.967321    0.077867
 H                 -1.702570    2.996552    0.102896
 C                 -1.123996    0.795925    0.044342
 C                 -0.834532   -0.627554   -0.019652
 O                 -1.671199   -1.456674   -0.348707
 O                  0.424218   -1.024270    0.318007
 C                  1.485619   -0.061866    0.631496
 C                  2.144796    0.434942   -0.642370
 H                  2.174011   -0.638897    1.247610
 H                  1.069985    0.755726    1.227352
 H                  2.990392    1.084941   -0.398617
 H                  2.512596   -0.409508   -1.229637
 H                  1.440760    1.006122   -1.254106

