%chk=ethyl_propiolate_non_planar.chk
%mem = 12GB
%nprocshared = 24
# opt=(calcfc,tight,noeigentest) freq 6-311++g(d,p) m062x

Title Card Required

0 1
 C                 -1.51094613    0.78778766   -0.35998980
 H                 -2.56454988    0.83084141   -0.54155383
 C                 -0.32815281    0.73945447   -0.15616313
 C                  1.18824885    0.67748773    0.10515303
 O                  1.75352828   -0.43477855    0.26914525
 O                  1.95397311    1.88388614    0.16144896
 C                  2.43453923    2.20491441   -1.14656367
 C                  3.25916536    3.50411269   -1.08593728
 H                  1.60460040    2.33979901   -1.80830961
 H                  3.05110798    1.40755005   -1.50566401
 H                  3.61874979    3.74432265   -2.06466003
 H                  2.64259661    4.30147705   -0.72683694
 H                  4.08910419    3.36922809   -0.42419135

