%chk=ethyl_propiolate_non_planar.chk
%mem = 12GB
%nprocshared = 24
# opt=(calcfc,tight,noeigentest) freq 6-311++g(d,p) m062x

Title Card Required

0 1
 C                  0.27761371   -1.46532780   -0.53091603
 H                 -0.07172696   -2.36294105   -0.99691124
 C                  0.66978953   -0.45765225   -0.00778168
 C                  1.17257893    0.83423901    0.66290440
 O                  1.13813767    0.94726881    1.91574462
 O                  1.90502580    1.73191261   -0.07273421
 C                  2.63747414    2.62958525   -0.80837251
 C                  4.15375696    2.44917332   -1.00821727
 H                  2.45090271    3.56145741   -0.31673709
 H                  2.14915126    2.62456881   -1.76043112
 H                  4.53238383    3.25067788   -1.60749361
 H                  4.64207985    2.45418977   -0.05615866
 H                  4.34032839    1.51730117   -1.49985270

