%chk=OH-radical.chk
#m062x/6-311++g** opt=(tight,calcfc,noeigentest) freq

Title Card Required

0 2
 O                  0.00000000    0.00000000    0.10800100
 H                  0.00000000    0.00000000   -0.86401200

