%nprocshared=24
%mem=12GB
%chk=ethyl_propiolate_ts1.chk
# freq 6-31+g m062x

Title Card Required

0 2
C       -2.72078200     -0.47655600     -0.44693300
H       -3.74601300     -0.56080600     -0.72601200
C       -1.56049900     -0.18777300     -0.13242100
C       -0.16363500     -0.53665200      0.22594100
O        0.16447500     -0.89518200      1.31997600
O        0.63769800     -0.33967500     -0.81051900
C        2.05299500     -0.42503500     -0.53959900
C        2.54056500      0.84345600      0.13175500
H        2.50194500     -0.56339400     -1.52126400
H        2.24016900     -1.30606400      0.07513100
H        3.62242700      0.79251400      0.26923400
H        2.30450200      1.71221000     -0.48376000
H        2.07242700      0.96477500      1.10895000
O       -1.35599800      1.64357500      0.09056400
H       -1.97573300      1.79186500      0.81909500

