%chk=ethyl_propiolate_non_planar.chk
%mem=12GB
%nprocshared=24
# irc=(calcfc,maxpoints=10,maxcycle=900,stepsize=5) 6-311++g(d,p) m062x

Title Card Required

0 2
 C                 -2.71169100   -0.49066000   -0.44603100
 H                 -3.74098700   -0.54474500   -0.72401900
 C                 -1.55615500   -0.08201600   -0.11834200
 C                 -0.16620100   -0.53427300    0.22573500
 O                  0.16239300   -0.89814100    1.31824600
 O                  0.63771300   -0.34128200   -0.81071900
 C                  2.05329200   -0.42585800   -0.53991400
 C                  2.54014800    0.84318300    0.13157600
 H                  2.50272700   -0.56375000   -1.52141300
 H                  2.24118200   -1.30664500    0.07481700
 H                  3.62198500    0.79244100    0.26931000
 H                  2.30404300    1.71194900   -0.48392800
 H                  2.07204600    0.96453400    1.10882600
 O                 -1.36250300    1.57894800    0.08252800
 H                 -1.97315400    1.76887200    0.80587800

