%nprocshared=24
%mem=12GB
%chk=ethyl_propiolate_ts1.chk
# freq 6-311++g(d,p) m062x

Title Card Required

0 2
C       -2.78351500     -0.49135800     -0.44226700
H       -3.80986800     -0.56595300     -0.71797800
C       -1.62209600     -0.31648600     -0.14207400
C       -0.22174500     -0.56411200      0.23031800
O        0.11022700     -0.91146400      1.32774000
O        0.58087800     -0.36365600     -0.80578800
C        1.99525100     -0.44945600     -0.53472100
C        2.48428100      0.82026500      0.13302100
H        2.44434900     -0.59094700     -1.51595300
H        2.18207400     -1.32879200      0.08265300
H        3.56618400      0.76973800      0.27025100
H        2.24873300      1.68746000     -0.48505000
H        2.01659100      0.94393000      1.11013800
O       -1.40685100      1.68663800      0.09824500
H       -2.03515400      1.79929700      0.82870100

