%nprocshared=24
%mem=12GB
%chk=ethyl_propiolate_ts1.chk
# freq 6-311++g(d,p) m062x

Title Card Required

0 2
C       -2.79854300     -0.49636500     -0.43147700
H       -3.83035200     -0.50778600     -0.69520000
C       -1.63035000     -0.47161000     -0.15191700
C       -0.22596700     -0.58866700      0.23872200
O        0.11840300     -0.87198800      1.35220600
O        0.57735700     -0.38415200     -0.79798200
C        1.99167900     -0.46248900     -0.52705300
C        2.48749300      0.81937000      0.11095000
H        2.43904900     -0.62750300     -1.50553700
H        2.17817300     -1.32776200      0.11025900
H        3.56978000      0.76773400      0.24507800
H        2.25370100      1.67376800     -0.52546600
H        2.02376700      0.96581600      1.08662400
O       -1.39052800      1.80676800      0.07530800
H       -2.02184100      1.84926600      0.81263800

