%chk=ethyl_propiolate_non_planar.chk
%mem=12GB
%nprocshared=24
# ccsd(t)/6-311++g(d,p) sp

Title Card Required

0 2
 C                 -2.73489800   -0.46526300   -0.45023600
 H                 -3.76448800   -0.50162300   -0.72032200
 C                 -1.56924500   -0.39212500   -0.16121900
 C                 -0.16672000   -0.55613100    0.22249700
 O                  0.17172700   -0.88570700    1.32455400
 O                  0.63784500   -0.33675400   -0.80980100
 C                  2.05156100   -0.42224200   -0.53853700
 C                  2.54202300    0.84485400    0.13258000
 H                  2.50119400   -0.56161800   -1.51992100
 H                  2.23808000   -1.30306200    0.07699700
 H                  3.62400400    0.79360500    0.26899800
 H                  2.30704700    1.71396400   -0.48313600
 H                  2.07480500    0.96562200    1.11019800
 O                 -1.34289200    1.78025400    0.10847300
 H                 -1.97776200    1.83923700    0.84109700

