%chk=ethyl_propiolate_non_planar.chk
%mem=12GB
%nprocshared=24
# ccsd(t)/6-311++g(d,p) sp

Title Card Required

0 2
 C                 -2.73956900   -0.46754700   -0.45268300
 H                 -3.77084300   -0.47473500   -0.71864000
 C                 -1.57197500   -0.44710900   -0.17028900
 C                 -0.16806300   -0.57068400    0.22003500
 O                  0.17486100   -0.88119700    1.32669400
 O                  0.63674500   -0.33819200   -0.80959800
 C                  2.05073100   -0.42001600   -0.53794900
 C                  2.54225100    0.84650000    0.13316000
 H                  2.50036100   -0.55924000   -1.51940100
 H                  2.23808400   -1.30065200    0.07770000
 H                  3.62440100    0.79403900    0.26807200
 H                  2.30762500    1.71613000   -0.48196000
 H                  2.07631500    0.96719400    1.11130300
 O                 -1.33805200    1.82536900    0.11480600
 H                 -1.97087000    1.84776800    0.85173000

