%nprocshared=24
%mem=12GB
%chk=ethyl_propiolate_ts1.chk
# freq 6-31+g m062x

Title Card Required

0 2
C       -2.73309700     -0.46505000     -0.44954200
H       -3.76198000     -0.51061400     -0.72100300
C       -1.56833700     -0.37295800     -0.15825800
C       -0.16630400     -0.55215400      0.22319600
O        0.17069200     -0.88710200      1.32388800
O        0.63802800     -0.33679400     -0.80990900
C        2.05176500     -0.42279600     -0.53871600
C        2.54183200      0.84451600      0.13242300
H        2.50136900     -0.56207400     -1.52010900
H        2.23829000     -1.30364600      0.07673500
H        3.62378200      0.79352200      0.26914000
H        2.30672200      1.71352600     -0.48337100
H        2.07439700      0.96529300      1.10996300
O       -1.34445500      1.76571300      0.10649300
H       -1.97870200      1.83617200      0.83842900
