%chk=ethyl_propiolate_non_planar.chk
%mem=12GB
%nprocshared=24
# irc=(calcfc,maxpoints=10,maxcycle=900,stepsize=5) 6-311++g(d,p) m062x

Title Card Required

0 2
 C                 -2.74064600   -0.46916700   -0.45369100
 H                 -3.77242100   -0.46589600   -0.71822100
 C                 -1.57283900   -0.46429800   -0.17325000
 C                 -0.16859600   -0.57623000    0.21912700
 O                  0.17578900   -0.87968900    1.32741600
 O                  0.63621000   -0.33942300   -0.80965500
 C                  2.05035800   -0.41910700   -0.53775700
 C                  2.54203200    0.84732800    0.13337900
 H                  2.50009800   -0.55807600   -1.51920900
 H                  2.23850400   -1.29960200    0.07789300
 H                  3.62427100    0.79445700    0.26756800
 H                  2.30744700    1.71717500   -0.48145300
 H                  2.07666400    0.96789600    1.11177000
 O                 -1.33632700    1.84106700    0.11710100
 H                 -1.96663700    1.85045100    0.85671800

