%chk=ethyl_propiolate.chk
%nprocshared=24
%mem=12GB
# opt=(calcfc,tight,ts,noeigentest) freq 6-31+g m062x

Title Card Required

0 2
 O                  2.25092771    1.22438261    0.34192528
 H                  3.23403457    1.33798079    0.32877319
 C                  2.62311960   -1.00309959   -0.50750700
 H                  3.59585997   -1.32049411   -0.81359051
 C                  1.59422819   -0.39794775   -0.12765689
 C                  0.25770776   -0.14022596    0.33501202
 O                 -0.10880824   -0.21266496    1.50554802
 O                 -0.50306924    0.35654704   -0.66832698
 C                 -1.80827724    0.92531104   -0.30002998
 C                 -2.84748124   -0.17138896   -0.14920698
 H                 -2.03078724    1.59771004   -1.12745198
 H                 -1.67943624    1.49523504    0.62316602
 H                 -3.82901824    0.27224404    0.04331502
 H                 -2.91045624   -0.76526196   -1.06450798
 H                 -2.59766524   -0.82800796    0.68720202

