%chk=ethyl_propiolate.chk
%nprocshared=4
%mem=1GB
# opt=(calcfc,tight,ts,noeigentest) freq 6-311++g(d,p) m062x

Title Card Required

0 2
 C                  1.34554200   -1.42797600   -1.10847600
 H                  1.71941900   -2.32863000   -1.54492100
 C                  0.95110600   -0.44780300   -0.49490200
 C                  0.42107400    0.91041800   -0.22393500
 O                  1.04961600    1.88523800   -0.52863200
 O                 -0.76798100    0.98992100    0.36974400
 C                 -1.51650800   -0.19790700    0.67755500
 C                 -2.36695700   -0.61407400   -0.50791100
 H                 -0.83761800   -0.98990400    1.00123900
 H                 -2.13682200    0.09166800    1.52735100
 H                 -3.01240000    0.21025300   -0.82105100
 H                 -1.73913700   -0.90743400   -1.35424900
 H                 -2.99534300   -1.46712600   -0.23632900
 O                  1.42097300   -0.79166900    1.41623900
 H                  2.37549400   -0.61268600    1.31516200

