%chk=ethyl_propiolate.chk
%nprocshared=4
%mem=1GB
# irc=(calcfc,maxpoints=10,maxcycle=900,stepsize=5) 6-311++g(d,p) geom=connectivity m062x

Title Card Required

0 2
 C                 -1.80812700   -0.11444300    0.95497000
 H                 -2.59393500   -0.52509800    1.54767500
 C                 -0.82662400    0.48955800    0.56660000
 C                  0.31217600    1.19892400   -0.02192200
 O                  0.38085300    2.39268500    0.01173400
 O                  1.25074100    0.45187500   -0.60018000
 C                  1.16774200   -0.98986500   -0.59110100
 C                  1.73736100   -1.55316000    0.69532400
 H                  0.13445500   -1.30160100   -0.75763100
 H                  1.76511300   -1.28812400   -1.45108000
 H                  2.76116000   -1.20617400    0.84140000
 H                  1.13790400   -1.25347700    1.55691800
 H                  1.74175900   -2.64384800    0.64808500
 O                 -2.36711400   -1.05620500   -0.75095700
 H                 -2.55746000   -0.27459200   -1.29336400

 1 2 1.0 3 3.0
 2
 3 4 1.0
 4 5 2.0 6 1.5
 5
 6 7 1.0
 7 8 1.0 9 1.0 10 1.0
 8 11 1.0 12 1.0 13 1.0
 9
 10
 11
 12
 13
 14 15 1.0
 15

