%chk=ethyl_propiolate.chk
%nprocshared=4
%mem=1GB
# opt=(calcfc,tight,ts,noeigentest) freq 6-311++g(d,p) m062x

Title Card Required

0 2
 C                  1.84137400    0.20696400   -0.89399600
 H                  2.70500800   -0.03779200   -1.47458600
 C                  0.77328800    0.65361700   -0.50834000
 C                 -0.48260700    1.17433100    0.04104700
 O                 -0.73250800    2.34931400    0.01606200
 O                 -1.32528200    0.28637400    0.57469100
 C                 -1.01748900   -1.12140500    0.56510700
 C                 -1.44335000   -1.75594900   -0.74487000
 H                  0.04782100   -1.27228800    0.76485600
 H                 -1.59270200   -1.52039600    1.40237800
 H                 -2.50206800   -1.56288100   -0.93500500
 H                 -0.85813300   -1.35992800   -1.57955500
 H                 -1.28600800   -2.83731100   -0.70209900
 O                  2.44108200   -0.90596500    0.70873600
 H                  2.39246300   -0.19253600    1.37440700

