%chk=ethyl_propiolate.chk
%nprocshared=24
%mem=12GB
# opt=(calcfc,tight,ts,noeigentest) freq 6-31+g m062x

Title Card Required

0 2
 O                  2.02508937   -1.72813475    0.34603731
 H                  2.74801578   -1.51352865   -0.27536795
 C                  1.82417255   -0.14004416    1.29071849
 H                  0.91792361    0.20920404    0.85426712
 C                  2.84347105   -0.53294437    1.78252396
 C                  4.11273018   -0.98012956    2.34053932
 O                  5.18268556   -0.62987608    1.92588950
 O                  3.91847600   -1.81404317    3.36249289
 C                  5.10731730   -2.33616641    3.98987587
 C                  5.68986078   -3.48173228    3.18552227
 H                  4.76581480   -2.66476776    4.96978502
 H                  5.82584425   -1.52418455    4.10738687
 H                  6.54252579   -3.90627119    3.71897395
 H                  4.94438104   -4.26592708    3.04559633
 H                  6.03262374   -3.13322764    2.21116851

