%chk=ethyl_propiolate_non_planar.chk
%mem=12GB
%nprocshared=24
# opt=(calcfc,tight,ts,noeigentest) freq 6-311++g(d,p) m062x

Title Card Required

0 2
 C                 -2.861639   -0.379524   -0.300656
 H                 -3.917901   -0.393091   -0.449317
 C                 -1.658896   -0.233884   -0.091510
 C                 -0.262726   -0.622820    0.054793
 O                  0.140193   -1.491494    0.820364
 O                  0.536030    0.080496   -0.789508
 C                  1.986875   -0.155867   -0.697207
 C                  2.565843    0.598548    0.485969
 H                  2.362999    0.210280   -1.651408
 H                  2.153173   -1.232391   -0.615770
 H                  3.652650    0.475098    0.508812
 H                  2.338755    1.664504    0.408499
 H                  2.157402    0.217747    1.424915
 O                 -1.456791    1.639721    0.475699
 H                 -1.119278    1.989358   -0.386513


