%chk=ethyl_propiolate_non_planar.chk
%mem=12GB
%nprocshared=24
# opt=(calcfc,tight,ts,noeigentest) freq 6-31+g m062x

Title Card Required

0 2
 C                 -1.46230565   -1.66837202    1.69978999
 H                 -0.45195665   -1.95639502    1.87296299
 C                 -2.54649547   -1.07984459    1.53542584
 C                 -3.96571965   -0.89570502    1.27403499
 O                 -4.29434965    0.25810898    1.26254299
 O                 -4.78229465   -1.93080002    1.07574399
 C                 -6.16989265   -1.60979202    0.84970999
 C                 -6.88168265   -1.31799402    2.15618299
 H                 -6.56992865   -2.49716902    0.36251599
 H                 -6.22558265   -0.76190202    0.16605399
 H                 -7.94360365   -1.15224702    1.96462799
 H                 -6.78146265   -2.16169702    2.84058199
 H                 -6.47319665   -0.42316902    2.62600699
 O                 -1.94701854    0.58161902    1.79113148
 H                 -2.52868222    1.35092662    1.67012550

