%chk=ethyl_propiolate_non_planar.chk
%mem=12GB
%nprocshared=24
# opt=(calcfc,tight,noeigentest) freq 6-31+g m062x

Title Card Required

0 2
 C                  3.02868200   -0.45001200    0.28741100
 H                  4.03903100   -0.73803500    0.46058400
 C                  1.83424771   -0.32436172    0.06350446
 C                  0.52526800    0.32265500   -0.13834400
 O                  0.19663800    1.47646900   -0.14983600
 O                 -0.29130700   -0.71244000   -0.33663500
 C                 -1.67890500   -0.39143200   -0.56266900
 C                 -2.39069500   -0.09963400    0.74380400
 H                 -2.07894100   -1.27880900   -1.04986300
 H                 -1.73459500    0.45645800   -1.24632500
 H                 -3.45261600    0.06611300    0.55224900
 H                 -2.29047500   -0.94333700    1.42820300
 H                 -1.98220900    0.79519100    1.21362800
 O                  1.30957216   -2.36499492   -0.19925420
 H                  0.60109769   -2.50359127   -0.85014915

