%chk=ethyl_propiolate_non_planar.chk
%mem=12GB
%nprocshared=24
# opt=(calcfc,tight,noeigentest) freq 6-311++g(d,p) m062x

Title Card Required

0 2
 C                  2.98977458   -0.46132252    0.50581499
 H                  4.03903100   -0.73803500    0.46058400
 C                  1.89184300   -0.12654800    0.09201200
 C                  0.52526800    0.32265500   -0.13834400
 O                  0.19663800    1.47646900   -0.14983600
 O                 -0.29130700   -0.71244000   -0.33663500
 C                 -1.67890500   -0.39143200   -0.56266900
 C                 -2.39069500   -0.09963400    0.74380400
 H                 -2.07894100   -1.27880900   -1.04986300
 H                 -1.73459500    0.45645800   -1.24632500
 H                 -3.45261600    0.06611300    0.55224900
 H                 -2.29047500   -0.94333700    1.42820300
 H                 -1.98220900    0.79519100    1.21362800
 O                  2.58722990   -0.28027348    2.34574518
 H                  1.65833946    0.00418123    2.37826212

