%chk=ethyl_propiolate.chk 
%nprocshared=24 
%mem=12GB 
# ccsd(t)/6-311++g(d,p) sp 

Title Card Required

0 2
 C                 -1.75390900   -0.12753500    1.08235000
 H                 -2.57491600   -0.58970600    1.57875200
 C                 -0.80433800    0.41829300    0.58337300
 C                  0.33318500    1.12681100   -0.01194600
 O                  0.40401500    2.31970700    0.01906100
 O                  1.27058600    0.37866400   -0.59280900
 C                  1.18867600   -1.06213300   -0.58136800
 C                  1.75846200   -1.62576200    0.70488200
 H                  0.15556000   -1.37509800   -0.74596600
 H                  1.78489700   -1.36185400   -1.44175400
 H                  2.78227300   -1.27861000    0.85055300
 H                  1.15876300   -1.32583700    1.56600900
 H                  1.76326000   -2.71648100    0.65716600
 O                 -2.37466300   -1.17813300   -0.83217100
 H                 -2.55699700   -0.35398700   -1.31348100

