%chk=ethyl_propiolate.chk 
%nprocshared=24 
%mem=12GB 
# ccsd(t)/6-311++g(d,p) sp 

Title Card Required

0 2
 C                 -1.75822600   -0.13553300    1.06664700
 H                 -2.57729500   -0.59498300    1.56885100
 C                 -0.80527800    0.41738000    0.58054400
 C                  0.33294200    1.12661700   -0.01215700
 O                  0.40353400    2.31955300    0.01959100
 O                  1.27081400    0.37867700   -0.59240600
 C                  1.18880800   -1.06223300   -0.58148500
 C                  1.75834300   -1.62591400    0.70484400
 H                  0.15576700   -1.37514200   -0.74650100
 H                  1.78538500   -1.36164800   -1.44172300
 H                  2.78213000   -1.27878000    0.85071100
 H                  1.15852900   -1.32599900    1.56591600
 H                  1.76311200   -2.71663200    0.65716700
 O                 -2.37045000   -1.17069900   -0.81847900
 H                 -2.55226700   -0.35282600   -1.31034600

