%chk=ethyl_propiolate.chk 
%nprocshared=24 
%mem=12GB 
# ccsd(t)/6-311++g(d,p) sp 

Title Card Required

0 2
 C                 -1.82162100   -0.24305800    0.85596900
 H                 -2.53787800   -0.57412400    1.58455600
 C                 -0.79941800    0.42237800    0.58494200
 C                  0.33165000    1.12425100   -0.01272000
 O                  0.40031700    2.32035700    0.02122100
 O                  1.27218300    0.37858900   -0.59007700
 C                  1.18771400   -1.06310300   -0.58176500
 C                  1.75780300   -1.62643100    0.70453700
 H                  0.15379300   -1.37412900   -0.74933800
 H                  1.78468600   -1.36178300   -1.44182700
 H                  2.78150200   -1.27911700    0.85045600
 H                  1.15916600   -1.32704800    1.56703900
 H                  1.76218400   -2.71708400    0.65772500
 O                 -2.32697300   -1.09370600   -0.67185300
 H                 -2.52881600   -0.34055900   -1.24458600

