%chk=ethyl_propiolate.chk 
%nprocshared=24 
%mem=12GB 
# ccsd(t)/6-311++g(d,p) sp 

Title Card Required

0 2
 C                 -1.78755534   -0.18761248    0.96432884
 H                 -2.57336334   -0.59826748    1.55703384
 C                 -0.80605234    0.41638852    0.57595884
 C                  0.33274766    1.12575452   -0.01256316
 O                  0.40142466    2.31951552    0.02109284
 O                  1.27131266    0.37870552   -0.59082116
 C                  1.18831366   -1.06303448   -0.58174216
 C                  1.75793266   -1.62632948    0.70468284
 H                  0.15502666   -1.37477048   -0.74827216
 H                  1.78568466   -1.36129348   -1.44172116
 H                  2.78173166   -1.27934348    0.85075884
 H                  1.15847566   -1.32664648    1.56627684
 H                  1.76233066   -2.71701748    0.65744384
 O                 -2.34654234   -1.12937448   -0.74159816
 H                 -2.53688834   -0.34776148   -1.28400516

