%chk=ethyl_propiolate.chk 
%nprocshared=24 
%mem=12GB 
# ccsd(t)/6-311++g(d,p) sp 

Title Card Required

0 2
 C                 -1.80430700   -0.21530400    0.91050400
 H                 -2.55932900   -0.58765700    1.57089400
 C                 -0.80339000    0.41877500    0.57918100
 C                  0.33261700    1.12516200   -0.01264600
 O                  0.40074500    2.31988900    0.02127500
 O                  1.27159600    0.37872400   -0.59035900
 C                  1.18795500   -1.06323000   -0.58177500
 C                  1.75788300   -1.62635800    0.70460200
 H                  0.15428700   -1.37436100   -0.74890100
 H                  1.78525900   -1.36136500   -1.44178600
 H                  2.78163300   -1.27922700    0.85066500
 H                  1.15880500   -1.32694400    1.56668100
 H                  1.76225700   -2.71701400    0.65754000
 O                 -2.33628500   -1.11108900   -0.70618800
 H                 -2.53224500   -0.34393300   -1.26493200

