%chk=ethyl_propiolate.chk 
%nprocshared=24 
%mem=12GB 
# ccsd(t)/6-311++g(d,p) sp 

Title Card Required

0 2
 C                 -1.56188800   -1.29361000   -0.31545700
 H                 -1.91629400   -2.28649200   -0.52636200
 C                 -0.57964400   -0.50854400   -0.30390400
 C                  0.03863100    0.79706700   -0.05941200
 O                 -0.63226800    1.73381900    0.27189600
 O                  1.35337900    0.89513700   -0.23428600
 C                  2.13057200   -0.28073600   -0.52578000
 C                  2.46308100   -1.04021800    0.74270700
 H                  1.59373700   -0.90425000   -1.24584100
 H                  3.02676000    0.10620500   -1.00775400
 H                  2.97822300   -0.38804100    1.44895100
 H                  1.55889000   -1.42686600    1.21698900
 H                  3.11397200   -1.88470000    0.50814300
 O                 -3.06834400   -0.48325100    0.25878400
 H                 -2.75979000    0.42594100    0.40094300

