%chk=ethyl_propiolate.chk 
%nprocshared=24 
%mem=12GB 
# ccsd(t)/6-311++g(d,p) sp 

Title Card Required

0 2
 C                 -1.42694100   -1.37732800   -0.36996800
 H                 -1.97658200   -2.27996200   -0.51256800
 C                 -0.59701300   -0.49881900   -0.29670300
 C                  0.03913500    0.79794900   -0.05946000
 O                 -0.63088500    1.73525700    0.27228600
 O                  1.35292000    0.89472500   -0.23451900
 C                  2.13031900   -0.28136400   -0.52606400
 C                  2.46299400   -1.04007800    0.74278000
 H                  1.59232300   -0.90480700   -1.24439300
 H                  3.02650300    0.10604400   -1.00759600
 H                  2.97846400   -0.38798900    1.44894700
 H                  1.55860600   -1.42710600    1.21605200
 H                  3.11372500   -1.88464000    0.50799500
 O                 -3.15128700   -0.43198500    0.29230900
 H                 -2.79792500    0.46674500    0.41852700

