%chk=ethyl_propiolate.chk 
%nprocshared=24 
%mem=12GB 
# ccsd(t)/6-311++g(d,p) sp 

Title Card Required

0 2
 C                 -1.59531200   -1.27210300   -0.30167800
 H                 -1.89906100   -2.28101700   -0.52888100
 C                 -0.57411500   -0.51267200   -0.30642300
 C                  0.03770200    0.79622900   -0.05937100
 O                 -0.63278000    1.73389000    0.27194300
 O                  1.35335100    0.89526500   -0.23421000
 C                  2.13069400   -0.28046600   -0.52572400
 C                  2.46311400   -1.04024600    0.74268400
 H                  1.59459500   -0.90406400   -1.24620200
 H                  3.02710800    0.10654500   -1.00733000
 H                  2.97815000   -0.38805800    1.44901000
 H                  1.55889100   -1.42677400    1.21702000
 H                  3.11409200   -1.88471400    0.50822300
 O                 -3.04802200   -0.49578700    0.25056200
 H                 -2.75078800    0.41583100    0.39679600

