%chk=ethyl_propiolate.chk 
%nprocshared=24 
%mem=12GB 
# ccsd(t)/6-311++g(d,p) sp 

Title Card Required

0 2
 C                 -1.34941100   -1.42996100   -0.40241800
 H                 -1.95727500   -2.29628500   -0.52162600
 C                 -0.59572900   -0.49806100   -0.29672600
 C                  0.03809400    0.79842600   -0.05920800
 O                 -0.63090200    1.73672400    0.27284100
 O                  1.35212900    0.89472900   -0.23450300
 C                  2.13070100   -0.28117700   -0.52601500
 C                  2.46288500   -1.03988000    0.74298000
 H                  1.59393900   -0.90451000   -1.24476200
 H                  3.02714500    0.10756400   -1.00596000
 H                  2.97812900   -0.38786700    1.44940100
 H                  1.55844100   -1.42740300    1.21549600
 H                  3.11390600   -1.88423900    0.50816200
 O                 -3.20942300   -0.39565500    0.31587200
 H                 -2.81282500    0.48846400    0.42384100

