%nprocshared=24
%mem=12GB
%chk=ethyl_propiolate_ts1.chk
# freq 6-31+g m062x

Title Card Required

0 2
O       -1.34446000      1.76570800      0.10649300
H       -1.97871000      1.83616600      0.83842600
C       -2.73309400     -0.46505000     -0.44955000
H       -3.76197600     -0.51061200     -0.72101500
C       -1.56833500     -0.37296000     -0.15826000
C       -0.16630400     -0.55215400      0.22319900
O        0.17069000     -0.88709100      1.32389500
O        0.63803100     -0.33680300     -0.80990600
C        2.05176800     -0.42280000     -0.53870900
C        2.54183100      0.84452300      0.13241100
H        2.50137400     -0.56209300     -1.52009900
H        2.23829200     -1.30364000      0.07675600
H        3.62377900      0.79353100      0.26913700
H        2.30672500      1.71352300     -0.48339800
H        2.07438900      0.96531700      1.10994600

