%nprocshared=24
%mem=12GB
%chk=ethyl_propiolate_ts1.chk
# ccsd(t)/6-311++g(d,p) sp

Title Card Required

0 2
 O                 -1.34597300    1.75136900    0.10456700
 H                 -1.97914800    1.83288600    0.83603900
 C                 -2.73127800   -0.46512900   -0.44892600
 H                 -3.75943900   -0.51919400   -0.72169600
 C                 -1.56747100   -0.35342800   -0.15534500
 C                 -0.16590400   -0.54869100    0.22381600
 O                  0.16971000   -0.88838000    1.32326900
 O                  0.63812800   -0.33698300   -0.81001300
 C                  2.05194400   -0.42326500   -0.53886900
 C                  2.54163500    0.84426100    0.13227600
 H                  2.50150400   -0.56243500   -1.52027900
 H                  2.23854200   -1.30412800    0.07650200
 H                  3.62355900    0.79343700    0.26922600
 H                  2.30640700    1.71319000   -0.48357000
 H                  2.07403500    0.96507500    1.10975700

