%nprocshared=24
%mem=12GB
%chk=ethyl_propiolate_ts1.chk
# freq 6-311++g(d,p) m062x

Title Card Required

0 2
 O                 -1.36106300    1.59192500    0.08412000
 H                 -1.97347800    1.77262500    0.80889100
 C                 -2.71420400   -0.48765800   -0.44637100
 H                 -3.74221600   -0.55154600   -0.72497500
 C                 -1.55687500   -0.10296800   -0.12109900
 C                 -0.16535500   -0.53487400    0.22581100
 O                  0.16282800   -0.89753700    1.31866500
 O                  0.63769900   -0.34097200   -0.81066900
 C                  2.05326400   -0.42566800   -0.53984500
 C                  2.54023100    0.84325400    0.13160300
 H                  2.50254200   -0.56368100   -1.52139600
 H                  2.24095400   -1.30652300    0.07487900
 H                  3.62207200    0.79243100    0.26928100
 H                  2.30410100    1.71200200   -0.48389700
 H                  2.07209000    0.96464400    1.10881400

