%nprocshared=24
%mem=12GB
%chk=ethyl_propiolate_ts1.chk
# ccsd(t)/6-311++g(d,p) sp

Title Card Required

0 2
 O                 -1.35841200    1.61778300    0.08732500
 H                 -1.97447300    1.78146500    0.81428300
 C                 -2.71810200   -0.48188800   -0.44678100
 H                 -3.74421700   -0.55955800   -0.72598400
 C                 -1.55855500   -0.14524300   -0.12670500
 C                 -0.16416300   -0.53581900    0.22592000
 O                  0.16365000   -0.89636400    1.31937200
 O                  0.63767800   -0.34033300   -0.81058900
 C                  2.05315700   -0.42533000   -0.53971900
 C                  2.54039600    0.84336500    0.13167400
 H                  2.50220600   -0.56353600   -1.52134800
 H                  2.24053500   -1.30629700    0.07499400
 H                  3.62224600    0.79243900    0.26924500
 H                  2.30426200    1.71210400   -0.48381800
 H                  2.07222600    0.96475800    1.10885100

