%nprocshared=24
%mem=12GB
%chk=ethyl_propiolate_ts1.chk
# ccsd(t)/6-311++g(d,p) sp

Title Card Required

0 2
O       -1.42280400      1.55035300      0.12617300
H       -2.03463000      1.71972100      0.85362300
C       -2.76731200     -0.50703300     -0.45897500
H       -3.79619200     -0.55568000     -0.73949600
C       -1.61294800     -0.10503100     -0.11916100
C       -0.22248400     -0.56360100      0.21433500
O        0.10562400     -0.95583700      1.29713300
O        0.58219100     -0.34147200     -0.81567400
C        1.99763500     -0.43048400     -0.54558400
C        2.48123900      0.82114600      0.16006300
H        2.44842400     -0.54128100     -1.52989200
H        2.18658700     -1.32698200      0.04566100
H        3.56302100      0.76885400      0.29765100
H        2.24410200      1.70555400     -0.43233300
H        2.01181700      0.91548700      1.13965800

