%nprocshared=24
%mem=12GB
%chk=ethyl_propiolate_ts1.chk
# freq 6-311++g(d,p) m062x

Title Card Required

0 2
O       -1.39510100      1.77514300      0.08178300
H       -2.02891600      1.83738400      0.81525000
C       -2.79499000     -0.49367700     -0.43418300
H       -3.82567000     -0.52371300     -0.70085600
C       -1.62805700     -0.43525500     -0.15014400
C       -0.22473800     -0.57986600      0.23665100
O        0.11625000     -0.88279300      1.34572100
O        0.57889000     -0.37745100     -0.80002000
C        1.99288500     -0.45927800     -0.52904900
C        2.48681200      0.81945400      0.11685200
H        2.44090300     -0.61833100     -1.50819400
H        2.17892300     -1.32835500      0.10313400
H        3.56893900      0.76866200      0.25234500
H        2.25255100      1.67708000     -0.51503400
H        2.02148300      0.95980600      1.09272300

