%nprocshared=24
%mem=12GB
%chk=ethyl_propiolate_ts1.chk
# freq 6-31+g m062x

Title Card Required

0 2
O       -1.34883300      1.72326700      0.10085000
H       -1.97902700      1.82507000      0.83172600
C       -2.72781300     -0.46613100     -0.44790000
H       -3.75463800     -0.53473900     -0.72304000
C       -1.56584800     -0.31342200     -0.14960000
C       -0.16509000     -0.54320100      0.22481700
O        0.16794200     -0.89064600      1.32215000
O        0.63811800     -0.33758400     -0.81020800
C        2.05225500     -0.42397600     -0.53914100
C        2.54127000      0.84389700      0.13205800
H        2.50165000     -0.56288500     -1.52062200
H        2.23905900     -1.30488500      0.07602700
H        3.62316400      0.79320500      0.26929000
H        2.30580600      1.71274300     -0.48376000
H        2.07346200      0.96480100      1.10946200
