%nprocshared=24
%mem=12GB
%chk=ethyl_propiolate_ts1.chk
# ccsd(t)/6-311++g(d,p) sp

Title Card Required

0 2
 O                 -1.35372200    1.66949400    0.09387100
 H                 -1.97703200    1.80348900    0.82351200
 C                 -2.72279800   -0.47191600   -0.44701600
 H                 -3.74803800   -0.55626100   -0.72535100
 C                 -1.56248600   -0.23026500   -0.13818400
 C                 -0.16373100   -0.53770400    0.22582900
 O                  0.16538500   -0.89391200    1.32057500
 O                  0.63779500   -0.33901800   -0.81044400
 C                  2.05278800   -0.42476500   -0.53947100
 C                  2.54074900    0.84356200    0.13181300
 H                  2.50179200   -0.56329100   -1.52111100
 H                  2.23985100   -1.30577600    0.07536100
 H                  3.62261800    0.79269500    0.26923800
 H                  2.30484300    1.71232800   -0.48379800
 H                  2.07268500    0.96478000    1.10906300

