%nprocshared=24
%mem=12GB
%chk=ethyl_propiolate_ts1.chk
# freq 6-311++g(d,p) m062x

Title Card Required

0 2
O       -1.41270400      1.63187700      0.10912900
H       -2.03455100      1.76649200      0.83921800
C       -2.77849500     -0.49479100     -0.44835700
H       -3.80350500     -0.57799100     -0.72818000
C       -1.61841500     -0.23178700     -0.13409300
C       -0.22047200     -0.56223500      0.22481100
O        0.10786000     -0.92868600      1.31624600
O        0.58111400     -0.35540500     -0.80962000
C        1.99622800     -0.44256400     -0.53893500
C        2.48317100      0.82039900      0.14315300
H        2.44556700     -0.57256300     -1.52157500
H        2.18355100     -1.32862900      0.06848900
H        3.56501600      0.76883500      0.28052700
H        2.24697200      1.69417600     -0.46517900
H        2.01468800      0.93326000      1.12119800

