%nprocshared=24
%mem=12GB
%chk=ethyl_propiolate_ts1.chk
# irc=(calcfc,maxpoints=10,maxcycle=900,stepsize=5) 6-311++g(d,p) m062x

Title Card Required

0 2
 O                 -1.36404200    1.56592100    0.08094400
 H                 -1.97302500    1.76560000    0.80256000
 C                 -2.70872800   -0.49371500   -0.44560400
 H                 -3.73948100   -0.53593500   -0.72274200
 C                 -1.55552700   -0.06124600   -0.11562400
 C                 -0.16721400   -0.53353900    0.22565900
 O                  0.16191800   -0.89873700    1.31778700
 O                  0.63773000   -0.34161300   -0.81076900
 C                  2.05330800   -0.42607800   -0.53996500
 C                  2.54005800    0.84311800    0.13152300
 H                  2.50293200   -0.56387300   -1.52139900
 H                  2.24142700   -1.30676200    0.07481100
 H                  3.62188900    0.79248200    0.26933900
 H                  2.30400500    1.71188300   -0.48402900
 H                  2.07199200    0.96445400    1.10881200

