%nprocshared=24
%mem=12GB
%chk=ethyl_propiolate_ts1.chk
# freq 6-311++g(d,p) m062x

Title Card Required

0 2
 O                 -1.35256300    1.68267300    0.09558100
 H                 -1.97750700    1.80930800    0.82566700
 C                 -2.72389000   -0.47005700   -0.44712400
 H                 -3.74942100   -0.55194900   -0.72470100
 C                 -1.56335700   -0.25131800   -0.14104800
 C                 -0.16400200   -0.53861300    0.22566800
 O                  0.16592800   -0.89319100    1.32091400
 O                  0.63787700   -0.33865700   -0.81039600
 C                  2.05266200   -0.42460900   -0.53941700
 C                  2.54086300    0.84361700    0.13184800
 H                  2.50171600   -0.56319200   -1.52104600
 H                  2.23968100   -1.30562100    0.07544600
 H                  3.62274400    0.79280700    0.26918800
 H                  2.30503800    1.71239600   -0.48381600
 H                  2.07288800    0.96473600    1.10915100

