%nprocshared=24
%mem=12GB
%chk=ethyl_propiolate_ts1.chk
# ccsd(t)/6-311++g(d,p) sp

Title Card Required

0 2
O       -1.41896100      1.57794000      0.12034600
H       -2.03397700      1.73437400      0.84914300
C       -2.77241400     -0.50222400     -0.45526000
H       -3.79904300     -0.56962500     -0.73648100
C       -1.61449200     -0.14664500     -0.12436900
C       -0.22122000     -0.56314600      0.21811400
O        0.10632700     -0.94634200      1.30399700
O        0.58168800     -0.34643500     -0.81358700
C        1.99712100     -0.43489100     -0.54337800
C        2.48201900      0.82069700      0.15397700
H        2.44721300     -0.55252100     -1.52720500
H        2.18532500     -1.32782600      0.05353100
H        3.56382300      0.76844700      0.29141000
H        2.24520800      1.70141000     -0.44399300
H        2.01293800      0.92168100      1.13304600

