%nprocshared=24
%mem=12GB
%chk=ethyl_propiolate_ts1.chk
# ccsd(t)/6-311++g(d,p) sp

Title Card Required

0 2
 O                 -1.35600200    1.64357100    0.09056300
 H                 -1.97574300    1.79185900    0.81908900
 C                 -2.72078000   -0.47655500   -0.44694100
 H                 -3.74601000   -0.56080200   -0.72602400
 C                 -1.56049700   -0.18777400   -0.13242300
 C                 -0.16363400   -0.53665200    0.22594400
 O                  0.16447400   -0.89517100    1.31998300
 O                  0.63770100   -0.33968500   -0.81051600
 C                  2.05299700   -0.42503900   -0.53959200
 C                  2.54056400    0.84346400    0.13174400
 H                  2.50195000   -0.56341300   -1.52125300
 H                  2.24017100   -1.30605800    0.07515300
 H                  3.62242400    0.79252300    0.26923100
 H                  2.30450600    1.71220700   -0.48378800
 H                  2.07241900    0.96480000    1.10893300

