%chk=ethyl_propiolate_non_planar.chk
%mem=60GB
%nprocshared=24
# ccsd(t)/6-311++g(d,p) sp

Title Card Required

0 2
 C                  2.75479700   -0.40764900    0.42107900
 H                  3.80213000   -0.37242800    0.61152600
 C                  1.57643500   -0.43982600    0.19103100
 C                  0.16228100   -0.61185000   -0.13159700
 O                 -0.21736100   -1.14023900   -1.13681800
 O                 -0.61732300   -0.15114900    0.84676100
 C                 -2.03769600   -0.29677000    0.63722100
 C                 -2.56494800    0.78784500   -0.28017600
 H                 -2.46168800   -0.22384300    1.63724400
 H                 -2.22909900   -1.29130200    0.23256500
 H                 -3.64777000    0.68904900   -0.37905500
 H                 -2.34209100    1.77442100    0.12867000
 H                 -2.11716600    0.70408300   -1.27042300
 O                  1.39091700    1.80699000   -0.43053400
 H                  1.46729000    2.06624100    0.50312700

