%nprocshared=4
%mem=150MW
%chk=ethyl_propiolate.chk
# opt=(calcfc,tight,noeigentest) freq 6-311++g(d,p) m062x

Title Card Required

0 2
 C                  2.90748100   -0.94694900    0.01887100
 H                  3.82519200   -1.49323200    0.03068600
 C                  1.87151600   -0.33205600    0.00476200
 C                  0.65301200    0.45820700   -0.00657400
 O                  0.61232700    1.66138200    0.02737400
 O                 -0.43443100   -0.34139000   -0.05884200
 C                 -1.67214700    0.25364400   -0.09565400
 C                 -2.80133800   -0.69175500    0.04951900
 H                 -1.69996000    1.31025000    0.13251700
 H                 -2.70738600   -1.52259300   -0.65702200
 H                 -2.84716500   -1.12412200    1.06001100
 H                 -3.74499100   -0.17678700   -0.13998200

