%nprocshared=4
%mem=150MW
%chk=ethyl_propiolate.chk
# uccsd(t)/6-311++g(d,p) sp

Title Card Required

0 2
 C                 -2.91396700   -0.87977700   -0.01481700
 H                 -3.85065400   -1.38582300   -0.02141200
 C                 -1.85949400   -0.31173100   -0.00736400
 C                 -0.60661600    0.43029400    0.00250400
 O                 -0.53566800    1.62698300    0.02720600
 O                  0.44109900   -0.39533900   -0.01994600
 C                  1.72943600    0.24684800   -0.00088000
 C                  2.76482000   -0.80819600   -0.01367800
 H                  1.80812600    0.91625400   -0.86268800
 H                  1.77916200    0.87838600    0.89686200
 H                  2.56049400   -1.76693300    0.44098200
 H                  3.77435400   -0.55966300   -0.30641000

