%nprocshared=24
%mem=12GB
%chk=ethyl_propiolate.chk
# freq 6-311++g(d,p) m062x

Title Card Required

0 2
 O                  2.69395000    1.73646600   -0.23002100
 H                  1.89436700    2.22803800    0.00103500
 C                 -3.13420400    1.01992500    0.42241300
 H                 -4.01477100    1.56606400    0.66923700
 C                 -2.14451500    0.40491100    0.14466100
 C                 -0.97718000   -0.38412100   -0.20972400
 O                 -1.01974700   -1.48606600   -0.67454300
 O                  0.15737800    0.28785300    0.05622700
 C                  1.36877700   -0.38283000   -0.26015400
 C                  1.83376200   -1.29899100    0.83369200
 H                  2.24090600    0.70819900   -0.33585500
 H                  1.33041100   -0.81056500   -1.26149200
 H                  2.81400900   -1.70906600    0.58978900
 H                  1.89875600   -0.76347800    1.78160500
 H                  1.12390700   -2.12749000    0.93549700

