%nprocshared=24
%mem=12GB
%chk=ethyl_propiolate_ts1.chk
# freq 6-311++g(d,p) m062x

Title Card Required

0 2
O        2.63677900      1.74337100     -0.24805100
H        1.83547000      2.23321800     -0.01674400
C       -3.19262800      1.02982400      0.40351600
H       -4.07277600      1.57649800      0.65060300
C       -2.20341500      0.41417800      0.12546600
C       -1.03650800     -0.37556600     -0.22924600
O       -1.08010300     -1.47722200     -0.69480100
O        0.09807400      0.29540700      0.03709700
C        1.31045200     -0.37506000     -0.27992600
C        1.77326300     -1.29362800      0.81380200
H        2.16825200      0.68926800     -0.35631200
H        1.26849100     -0.80607100     -1.27990900
H        2.75338200     -1.70396300      0.56965700
H        1.83895900     -0.75828500      1.76172300
H        1.06323800     -2.12159500      0.91535400

