%nprocshared=24
%mem=12GB
%chk=ethyl_propiolate_ts1.chk
# freq 6-31+g m062x

Title Card Required

0 2
O        2.70931800      1.77140300     -0.22627500
H        1.87824400      2.22093800      0.00474500
C       -3.13460500      1.02013900      0.42246900
H       -4.01527300      1.56582300      0.66908600
C       -2.14501900      0.40484500      0.14492200
C       -0.97469400     -0.38365200     -0.20802500
O       -1.02081800     -1.48595100     -0.67432900
O        0.15376000      0.28910300      0.05555600
C        1.37399000     -0.39146700     -0.26847300
C        1.82798200     -1.30817900      0.83699700
H        2.12605400      0.42695000     -0.39910900
H        1.27256700     -0.88511800     -1.23530100
H        2.81159500     -1.71194100      0.59202300
H        1.90158100     -0.76078700      1.77769600
H        1.12964900     -2.13918400      0.95395200
