%nprocshared=24
%mem=12GB
%chk=ethyl_propiolate.chk
# freq 6-311++g(d,p) m062x

Title Card Required

0 2
 O                  2.70095951    1.75145851   -0.22854689
 H                  1.88390351    2.22301751    0.00255011
 C                 -3.13436449    1.02001251    0.42243611
 H                 -4.01493749    1.56592351    0.66919411
 C                 -2.14474049    0.40487451    0.14473911
 C                 -0.97561849   -0.38399849   -0.20890589
 O                 -1.02007149   -1.48613949   -0.67460189
 O                  0.15454851    0.28851751    0.05617511
 C                  1.37575651   -0.37983849   -0.26357389
 C                  1.83119451   -1.30289749    0.83474211
 H                  2.14399751    0.50987051   -0.35959789
 H                  1.30583351   -0.84237849   -1.24851589
 H                  2.81342951   -1.70924249    0.59030911
 H                  1.90006851   -0.76251049    1.77962711
 H                  1.12729951   -2.13210049    0.94186611

