%nprocshared=24
%mem=12GB
%chk=ethyl_propiolate_ts1.chk
# ccsd(t)/6-311++g(d,p) sp

Title Card Required

0 2
O        2.65364100      1.77861400     -0.24545600
H        1.82311500      2.22916000     -0.01443600
C       -3.19119200      1.03446100      0.40328800
H       -4.07119500      1.58121700      0.64990500
C       -2.20235500      0.41796400      0.12574100
C       -1.03299000     -0.37195700     -0.22720600
O       -1.08045600     -1.47419900     -0.69351000
O        0.09628100      0.29942500      0.03637500
C        1.31568200     -0.38262900     -0.28765400
C        1.76855900     -1.29989300      0.81781600
H        2.06874200      0.43487200     -0.41829000
H        1.21365900     -0.87615700     -1.25448200
H        2.75168000     -1.70485200      0.57284200
H        1.84282400     -0.75259100      1.75851500
H        1.06921500     -2.13004800      0.93477100

