%nprocshared=24
%mem=12GB
%chk=ethyl_propiolate_ts1.chk
# freq 6-31+g m062x

Title Card Required

0 2
O        2.69335900      1.73532600     -0.23012400
H        1.89593400      2.22918200      0.00092100
C       -3.13419200      1.01991900      0.42241200
H       -4.01475700      1.56607500      0.66924300
C       -2.14450100      0.40491400      0.14465300
C       -0.97734500     -0.38412100     -0.20980000
O       -1.01973000     -1.48605100     -0.67452900
O        0.15772300      0.28779300      0.05621500
C        1.36750800     -0.38403700     -0.25984400
C        1.83398200     -1.29864000      0.83360800
H        2.25524200      0.73298200     -0.33439600
H        1.33258100     -0.80767600     -1.26281200
H        2.81404800     -1.70909100      0.58976200
H        1.89865100     -0.76355900      1.78183300
H        1.12367500     -2.12718200      0.93519700
