%nprocshared=24
%mem=12GB
%chk=ethyl_propiolate_ts1.chk
# freq 6-31+g m062x

Title Card Required

0 2
O        2.64265700      1.76076700     -0.24783000
H        1.82560100      2.23232600     -0.01673300
C       -3.19266700      1.02932100      0.40315300
H       -4.07324000      1.57523200      0.64991100
C       -2.20304300      0.41418300      0.12545600
C       -1.03392100     -0.37469000     -0.22818900
O       -1.07837400     -1.47683100     -0.69388500
O        0.09624600      0.29782600      0.03689200
C        1.31745400     -0.37053000     -0.28285700
C        1.77289200     -1.29358900      0.81545900
H        2.08569500      0.51917900     -0.37888100
H        1.24753100     -0.83307000     -1.26779900
H        2.75512700     -1.69993400      0.57102600
H        1.84176600     -0.75320200      1.76034400
H        1.06899700     -2.12279200      0.92258300

