%nprocshared=24
%mem=12GB
%chk=ethyl_propiolate_ts1.chk
# freq 6-311++g(d,p) m062x

Title Card Required

0 2
O        2.65874800      1.78595800     -0.24424600
H        1.82278200      2.22695600     -0.01322900
C       -3.19036600      1.03730700      0.40335200
H       -4.07002300      1.58463100      0.64988300
C       -2.20196700      0.42005000      0.12591900
C       -1.03295000     -0.37057200     -0.22681800
O       -1.08189900     -1.47285500     -0.69321700
O        0.09698100      0.29967000      0.03591200
C        1.31384900     -0.38976200     -0.29005800
C        1.76643400     -1.30314100      0.81908700
H        2.06702300      0.41201100     -0.43614300
H        1.19910100     -0.89490700     -1.24929000
H        2.74943400     -1.70862200      0.57404000
H        1.84305400     -0.75245800      1.75766400
H        1.06799200     -2.13308500      0.94060700

