%nprocshared=24
%mem=12GB
%chk=ethyl_propiolate_ts1.chk
# freq 6-31+g m062x

Title Card Required

0 2
O        2.71468800      1.78497200     -0.22448700
H        1.87497600      2.21906000      0.00653100
C       -3.13478000      1.02022900      0.42249600
H       -4.01555700      1.56576200      0.66897700
C       -2.14513600      0.40493900      0.14513500
C       -0.97447200     -0.38328700     -0.20751700
O       -1.02158700     -1.48570800     -0.67392900
O        0.15433000      0.28894900      0.05473300
C        1.37142900     -0.40133800     -0.27222700
C        1.82607000     -1.31157900      0.83887000
H        2.12272000      0.39530500     -0.42584300
H        1.25176600     -0.91227600     -1.22766900
H        2.80988800     -1.71519700      0.59384000
H        1.90256800     -0.75893200      1.77632000
H        1.12986600     -2.14292000      0.96272000

