%nprocshared=24
%mem=12GB
%chk=ethyl_propiolate.chk
# irc=(calcfc,maxpoints=10,maxcycle=900,stepsize=5) 6-311++g(d,p) m062x

Title Card Required

0 2
 O                  2.69526300    1.73908100   -0.22977800
 H                  1.89150700    2.22622900    0.00130000
 C                 -3.13422900    1.01993800    0.42241600
 H                 -4.01479700    1.56604000    0.66922800
 C                 -2.14454900    0.40490600    0.14467600
 C                 -0.97685400   -0.38411200   -0.20957000
 O                 -1.01978800   -1.48609400   -0.67456800
 O                  0.15671900    0.28797000    0.05624200
 C                  1.37102300   -0.38086200   -0.26078000
 C                  1.83330900   -1.29969800    0.83386100
 H                  2.21315200    0.65803900   -0.33938700
 H                  1.32605900   -0.81630900   -1.25887700
 H                  2.81393100   -1.70901600    0.58984100
 H                  1.89898000   -0.76329500    1.78115300
 H                  1.12448200   -2.12815400    0.93627000

