%nprocshared=24
%mem=12GB
%chk=ethyl_propiolate_ts1.chk
# freq 6-31+g m062x

Title Card Required

0 2
O        2.70399200      1.75849000     -0.22779400
H        1.88150500      2.22224500      0.00327200
C       -3.13444800      1.02005700      0.42244800
H       -4.01504000      1.56588400      0.66916300
C       -2.14485100      0.40485100      0.14478700
C       -0.97514800     -0.38390400     -0.20856700
O       -1.02028700     -1.48610800     -0.67455900
O        0.15391000      0.28881900      0.05604200
C        1.37587400     -0.38291300     -0.26521700
C        1.83000300     -1.30477800      0.83542300
H        2.13181600      0.46880700     -0.37299100
H        1.29388200     -0.85770200     -1.24345200
H        2.81292200     -1.70983900      0.59076800
H        1.90063800     -0.76203300      1.77892600
H        1.12849400     -2.13473100      0.94589200

