%nprocshared=24
%mem=12GB
%chk=ethyl_propiolate.chk
# irc=(calcfc,maxpoints=10,maxcycle=900,stepsize=5) 6-311++g(d,p) m062x

Title Card Required

0 2
 O                  2.69281900    1.73432700   -0.23021200
 H                  1.89764900    2.23056000    0.00082100
 C                 -3.13418000    1.01991400    0.42241100
 H                 -4.01474100    1.56608600    0.66925000
 C                 -2.14448700    0.40491700    0.14464400
 C                 -0.97751700   -0.38411700   -0.20987800
 O                 -1.01971400   -1.48603400   -0.67451400
 O                  0.15809400    0.28772800    0.05619800
 C                  1.36608300   -0.38544900   -0.25951800
 C                  1.83420600   -1.29827500    0.83351900
 H                  2.26995400    0.75737600   -0.33320000
 H                  1.33486700   -0.80461800   -1.26420100
 H                  2.81409100   -1.70911400    0.58973100
 H                  1.89854500   -0.76362800    1.78206700
 H                  1.12349400   -2.12687700    0.93495700

