%nprocshared=24
%mem=12GB
%chk=ethyl_propiolate_ts1.chk
# freq 6-311++g(d,p) m062x

Title Card Required

0 2
O        2.66392400      1.79325900     -0.24292200
H        1.82251500      2.22429500     -0.01187600
C       -3.18948700      1.04031900      0.40341700
H       -4.06878600      1.58825000      0.64984300
C       -2.20152400      0.42229900      0.12613300
C       -1.03300800     -0.36911000     -0.22645200
O       -1.08355600     -1.47144000     -0.69285700
O        0.09795400      0.29966900      0.03528900
C        1.31181300     -0.39735700     -0.29265200
C        1.76429300     -1.30645900      0.82044800
H        2.06588900      0.39203600     -0.45407400
H        1.18477200     -0.91360300     -1.24427600
H        2.74693100     -1.71306600      0.57547600
H        1.84331700     -0.75214700      1.75671400
H        1.06625900     -2.13582000      0.94674100

