%nprocshared=24
%mem=12GB
%chk=ethyl_propiolate_ts1.chk
# ccsd(t)/6-311++g(d,p) sp

Title Card Required

0 2
O        2.63586000      1.73740000     -0.24779000
H        1.84142900      2.23464900     -0.01640300
C       -3.19228500      1.03133600      0.40368600
H       -4.07203200      1.57864100      0.65091400
C       -2.20350700      0.41506600      0.12548100
C       -1.03771200     -0.37544700     -0.22961300
O       -1.08155000     -1.47689800     -0.69520000
O        0.09890000      0.29443200      0.03714400
C        1.30588800     -0.38031900     -0.27904000
C        1.77251300     -1.29479900      0.81325500
H        2.21151200      0.76118600     -0.35165700
H        1.27412400     -0.79857600     -1.28408600
H        2.75179200     -1.70692600      0.56920300
H        1.83758200     -0.76106700      1.76226800
H        1.06052600     -2.12240000      0.91391500

