%nprocshared=24
%mem=12GB
%chk=ethyl_propiolate.chk
# irc=(calcfc,maxpoints=10,maxcycle=900,stepsize=5) 6-311++g(d,p) m062x

Title Card Required

0 2
 O                  2.69756500    1.74388600   -0.22931900
 H                  1.88762600    2.22433500    0.00179600
 C                 -3.13427600    1.01996400    0.42242200
 H                 -4.01484100    1.56599700    0.66921300
 C                 -2.14461700    0.40489800    0.14469900
 C                 -0.97632400   -0.38407800   -0.20930600
 O                 -1.01987700   -1.48612800   -0.67459700
 O                  0.15571700    0.28816800    0.05624100
 C                  1.37393000   -0.37890100   -0.26185700
 C                  1.83250800   -1.30091300    0.83416000
 H                  2.17393500    0.58224500   -0.34636300
 H                  1.31852600   -0.82609600   -1.25462900
 H                  2.81378500   -1.70898600    0.58996000
 H                  1.89938800   -0.76297600    1.78046800
 H                  1.12561000   -2.12945300    0.93802500

