%chk=ethyl_propiolate.chk 
%nprocshared=24 
%mem=12GB 
# ccsd(t)/6-311++g(d,p) sp 

Title Card Required

0 2
 C                 -2.52332755    0.21529458   -1.13559792
 H                 -3.41327155    0.47171558   -1.66234292
 C                 -1.53021155    0.00647058   -0.46589992
 C                 -0.25798855   -0.59255942   -0.02996792
 O                 -0.18410355   -1.66103342    0.50554008
 O                  0.76069945    0.20517958   -0.31754992
 C                  2.05279145   -0.25565742    0.12529308
 C                  3.05821145    0.80267658   -0.26240592
 H                  2.00890345   -0.40972242    1.20531208
 H                  2.25820245   -1.21815142   -0.34772092
 H                  3.06777845    0.94729058   -1.34336692
 H                  2.81618845    1.75284358    0.21479708
 H                  4.05565145    0.49567658    0.05652008
 O                 -1.69949955    1.14887458    1.16035208
 H                 -2.49137155    0.73405158    1.53579408

