%chk=ethyl_propiolate.chk 
%nprocshared=24 
%mem=12GB 
# ccsd(t)/6-311++g(d,p) sp 

Title Card Required

0 2
 C                 -2.53516300    0.22127700   -1.13980200
 H                 -3.44129100    0.51257900   -1.61741500
 C                 -1.50754300   -0.08223900   -0.59582000
 C                 -0.25561500   -0.60673100   -0.05220200
 O                 -0.17969800   -1.65891700    0.51745100
 O                  0.76067100    0.20499500   -0.31645500
 C                  2.05167300   -0.25343700    0.12975900
 C                  3.05810500    0.80266900   -0.26209400
 H                  2.00981200   -0.40564000    1.21002800
 H                  2.25657200   -1.21740200   -0.34105500
 H                  3.06568900    0.94526800   -1.34333100
 H                  2.81862800    1.75427000    0.21360700
 H                  4.05574800    0.49502100    0.05562100
 O                 -1.71070700    1.21480400    1.25545800
 H                 -2.49746700    0.74011800    1.57072100

