%chk=ethyl_propiolate.chk 
%nprocshared=24 
%mem=12GB 
# ccsd(t)/6-311++g(d,p) sp 

Title Card Required

0 2
 C                 -2.52077400    0.21250200   -1.13729400
 H                 -3.40893800    0.46608600   -1.66893400
 C                 -1.53631700    0.03058800   -0.43156700
 C                 -0.25797100   -0.59126800   -0.02787400
 O                 -0.18484200   -1.66134000    0.50366000
 O                  0.76054300    0.20481100   -0.31827400
 C                  2.05295400   -0.25585000    0.12490100
 C                  3.05821300    0.80264100   -0.26250700
 H                  2.00818400   -0.40957600    1.20492200
 H                  2.25855100   -1.21833500   -0.34795500
 H                  3.06797600    0.94719500   -1.34349100
 H                  2.81604400    1.75272000    0.21472100
 H                  4.05560700    0.49555800    0.05647700
 O                 -1.69657400    1.13341600    1.13836400
 H                 -2.48742000    0.72954000    1.52586900

