%chk=ethyl_propiolate.chk 
%nprocshared=24 
%mem=12GB 
# ccsd(t)/6-311++g(d,p) sp 

Title Card Required

0 2
 C                  2.56068330    0.18194321    0.00000023
 H                  3.62416230    0.09621021    0.00000123
 C                  1.43454130    0.64019421   -0.00000277
 C                  0.01413430    0.95311821   -0.00000477
 O                 -0.44081470    2.06061321   -0.00000977
 O                 -0.70378670   -0.17508379    0.00000023
 C                 -2.13683270   -0.00044979   -0.00000077
 C                 -2.75491070   -1.37844379    0.00000523
 H                 -2.41204070    0.57823721    0.88380623
 H                 -2.41203970    0.57823021   -0.88381377
 H                 -2.45312970   -1.93727979   -0.88679377
 H                 -2.45312970   -1.93727179    0.88680823
 H                 -3.84256070   -1.29079979    0.00000423
 O                  2.34663830   -1.81740779    0.00001023
 H                  1.37794130   -1.88788079    0.00001023

