%chk=ethyl_propiolate.chk 
%nprocshared=24 
%mem=12GB 
# ccsd(t)/6-311++g(d,p) sp 

Title Card Required

0 2
 C                  2.57251300    0.24121900    0.00000000
 H                  3.62630600    0.08332000    0.00000100
 C                  1.43332800    0.63881600   -0.00000300
 C                  0.01417000    0.95338800   -0.00000500
 O                 -0.44160000    2.06039000   -0.00001000
 O                 -0.70447100   -0.17528800    0.00000000
 C                 -2.13683400   -0.00037900   -0.00000100
 C                 -2.75515200   -1.37832900    0.00000500
 H                 -2.41234500    0.57835000    0.88372300
 H                 -2.41234500    0.57834200   -0.88373000
 H                 -2.45345100   -1.93718800   -0.88684800
 H                 -2.45345100   -1.93718000    0.88686300
 H                 -3.84281400   -1.29087900    0.00000500
 O                  2.34078100   -1.85899600    0.00001000
 H                  1.36966400   -1.90323900    0.00001000

