%chk=ethyl_propiolate.chk 
%nprocshared=24 
%mem=12GB 
# ccsd(t)/6-311++g(d,p) sp 

Title Card Required

0 2
 C                  2.56439200    0.20210700    0.00000000
 H                  3.62493300    0.08918000    0.00000100
 C                  1.43405200    0.63892300   -0.00000300
 C                  0.01422100    0.95324900   -0.00000500
 O                 -0.44099400    2.06055800   -0.00001000
 O                 -0.70400200   -0.17513100    0.00000000
 C                 -2.13679400   -0.00043600   -0.00000100
 C                 -2.75495500   -1.37842900    0.00000500
 H                 -2.41214200    0.57825000    0.88377800
 H                 -2.41214100    0.57824300   -0.88378600
 H                 -2.45318200   -1.93727000   -0.88681000
 H                 -2.45318200   -1.93726200    0.88682400
 H                 -3.84261100   -1.29088600    0.00000400
 O                  2.34470400   -1.83076600    0.00001000
 H                  1.37518800   -1.89404000    0.00001000

