%chk=ethyl_propiolate.chk 
%nprocshared=24 
%mem=12GB 
# ccsd(t)/6-311++g(d,p) sp 

Title Card Required

0 2
 C                  2.52811800   -0.00215600    0.00000100
 H                  3.59328800    0.16916100    0.00000100
 C                  1.44200700    0.66438500   -0.00000300
 C                  0.01544700    0.95098200   -0.00000500
 O                 -0.44054200    2.06013200   -0.00001000
 O                 -0.70340600   -0.17574800    0.00000000
 C                 -2.13706500   -0.00073600   -0.00000100
 C                 -2.75496900   -1.37849900    0.00000500
 H                 -2.41163100    0.57813700    0.88383900
 H                 -2.41163000    0.57812900   -0.88384500
 H                 -2.45314300   -1.93735100   -0.88675100
 H                 -2.45314300   -1.93734300    0.88676600
 H                 -3.84262600   -1.29074600    0.00000500
 O                  2.36427900   -1.70287500    0.00001000
 H                  1.40444600   -1.82620600    0.00001000

