%chk=ethyl_propiolate.chk 
%nprocshared=24 
%mem=12GB 
# ccsd(t)/6-311++g(d,p) sp 

Title Card Required

0 2
 C                  2.60075900    0.36687500   -0.00000100
 H                  3.64248200    0.14556000    0.00000100
 C                  1.43461400    0.65277700   -0.00000300
 C                  0.01287900    0.95500600   -0.00000500
 O                 -0.44749100    2.06002400   -0.00001000
 O                 -0.70381100   -0.17571200    0.00000000
 C                 -2.13638500   -0.00104600   -0.00000100
 C                 -2.75576000   -1.37849500    0.00000500
 H                 -2.41188700    0.57786600    0.88359100
 H                 -2.41188700    0.57785900   -0.88359700
 H                 -2.45472900   -1.93766800   -0.88691500
 H                 -2.45472900   -1.93766100    0.88693000
 H                 -3.84336300   -1.29027600    0.00000500
 O                  2.32513700   -1.96573800    0.00001100
 H                  1.35266200   -1.92808300    0.00001000

