%chk=ethyl_propiolate.chk 
%nprocshared=24 
%mem=12GB 
# ccsd(t)/6-311++g(d,p) sp 

Title Card Required

0 2
 C                  2.52376400   -0.02220600    0.00000100
 H                  3.58609100    0.17291700    0.00000100
 C                  1.44385900    0.66730600   -0.00000300
 C                  0.01609400    0.95069300   -0.00000500
 O                 -0.44062300    2.05990000   -0.00001000
 O                 -0.70352100   -0.17599300    0.00000000
 C                 -2.13704100   -0.00078300   -0.00000100
 C                 -2.75501200   -1.37851000    0.00000500
 H                 -2.41166300    0.57811200    0.88381000
 H                 -2.41166200    0.57810400   -0.88381700
 H                 -2.45318300   -1.93737600   -0.88676100
 H                 -2.45318300   -1.93736800    0.88677600
 H                 -3.84268000   -1.29087600    0.00000500
 O                  2.36615100   -1.68986100    0.00001000
 H                  1.40755600   -1.82059000    0.00001000

