%nprocshared=24
%mem=12GB
%chk=ethyl_propiolate_ts1.chk
# freq 6-311++g(d,p) m062x

Title Card Required

0 2
O        2.12987800      1.28185500      0.01806600
H        2.78996600      1.17644900      0.71598100
C        2.44450000     -1.16359500     -0.58572400
H        3.32579800     -1.63608800     -0.95690400
C        1.56885600     -0.36805000     -0.16419700
C        0.16595300     -0.19442600      0.32143500
O       -0.16948500     -0.39419600      1.45355900
O       -0.59480100      0.29840200     -0.64516700
C       -1.93018600      0.69190600     -0.26438800
C       -2.85764000     -0.50534900     -0.21283100
H       -2.22588300      1.40006100     -1.03612300
H       -1.87816500      1.20231900      0.69798000
H       -3.87368400     -0.17140800      0.00632200
H       -2.86442900     -1.02336600     -1.17306800
H       -2.54723400     -1.19936500      0.56837700

