%chk=ethyl_propiolate.chk
%nprocshared=24
%mem=12GB
# irc=(calcfc,maxpoints=10,maxcycle=900,stepsize=5) 6-311++g(d,p) m062x

Title Card Required

0 2
 O                  2.10572919    1.35587638   -0.01967820
 H                  2.75421519    1.21208338    0.68680580
 C                  2.39093619   -1.18077862   -0.56538720
 H                  3.26528119   -1.67496362   -0.92108720
 C                  1.44713219   -0.51970962   -0.17728320
 C                  0.09947619   -0.19282262    0.31655180
 O                 -0.23494581   -0.34999962    1.45616780
 O                 -0.65604181    0.28384338   -0.66288320
 C                 -1.98927281    0.69246238   -0.29296920
 C                 -2.92218681   -0.49931962   -0.20907320
 H                 -2.28250081    1.38021138   -1.08389520
 H                 -1.93660981    1.22886538    0.65505580
 H                 -3.93668381   -0.15480362    0.00073480
 H                 -2.93115681   -1.04338262   -1.15476120
 H                 -2.61513581   -1.17319462    0.59090580

