%chk=ethyl_propiolate.chk
%nprocshared=24
%mem=12GB
# ccsd(t)/6-311++g(d,p) sp

Title Card Required

0 2
 O                  2.12511000    1.40827500   -0.01490400
 H                  2.76267400    1.22776600    0.69476200
 C                  2.39797500   -1.17974100   -0.56756900
 H                  3.28430900   -1.65320300   -0.92068400
 C                  1.41558300   -0.59531200   -0.18488500
 C                  0.09669200   -0.20159500    0.31544100
 O                 -0.23600000   -0.34510800    1.45824300
 O                 -0.65625500    0.28531100   -0.66248500
 C                 -1.98897200    0.69366400   -0.29251100
 C                 -2.92167400   -0.49889000   -0.20907500
 H                 -2.28287400    1.38121200   -1.08338800
 H                 -1.93765200    1.22991500    0.65564700
 H                 -3.93632100   -0.15477200    0.00069900
 H                 -2.93013900   -1.04280700   -1.15483600
 H                 -2.61467800   -1.17290100    0.59084600

