%chk=ethyl_propiolate.chk
%nprocshared=24
%mem=12GB
# freq 6-311++g(d,p) m062x

Title Card Required

0 2
 O                  2.06001300    1.23259400   -0.03012400
 H                  2.72599000    1.17076200    0.66568300
 C                  2.36562800   -1.19851600   -0.56163400
 H                  3.26116900   -1.65821200   -0.91941000
 C                  1.52930700   -0.32384000   -0.15871400
 C                  0.10569600   -0.18751900    0.31602900
 O                 -0.23349300   -0.35756200    1.45247600
 O                 -0.65625400    0.28030100   -0.66334400
 C                 -1.98959300    0.69084900   -0.29361400
 C                 -2.92297900   -0.49964300   -0.20905900
 H                 -2.28200200    1.37916000   -1.08441700
 H                 -1.93464400    1.22706500    0.65456500
 H                 -3.93744600   -0.15504500    0.00077800
 H                 -2.93225300   -1.04384000   -1.15468800
 H                 -2.61554200   -1.17336000    0.59082700

