%chk=ethyl_propiolate.chk 
%nprocshared=24 
%mem=12GB 
# ccsd(t)/6-311++g(d,p) sp 

Title Card Required

0 2
 C                  1.29833000   -1.43316900   -1.14613300
 H                  1.67962300   -2.31777500   -1.60119400
 C                  0.86844300   -0.45220400   -0.59316200
 C                  0.35030600    0.87540600   -0.21726900
 O                  0.97032300    1.85982200   -0.48952800
 O                 -0.82696100    0.92431300    0.39637900
 C                 -1.57375300   -0.27610300    0.67257100
 C                 -2.42298000   -0.66976200   -0.51978000
 H                 -0.89050700   -1.06990600    0.97635700
 H                 -2.19228900   -0.00798500    1.52770400
 H                 -3.07769200    0.15339000   -0.80896500
 H                 -1.79957100   -0.93961900   -1.37407400
 H                 -3.04048500   -1.53271900   -0.26204200
 O                  1.40582700   -0.91031700    1.45993300
 H                  2.35226800   -0.73655400    1.32762200

