%chk=ethyl_propiolate.chk 
%nprocshared=24 
%mem=12GB 
# ccsd(t)/6-311++g(d,p) sp 

Title Card Required

0 2
 C                  1.29678400   -1.42804400   -1.14605800
 H                  1.66809500   -2.30565700   -1.62281100
 C                  0.88823800   -0.46439400   -0.53785700
 C                  0.35350500    0.87376700   -0.20800200
 O                  0.96951900    1.85595900   -0.49435300
 O                 -0.82867300    0.92472700    0.39418600
 C                 -1.57506400   -0.27551000    0.67355500
 C                 -2.42246800   -0.67027400   -0.51963500
 H                 -0.89249500   -1.06845600    0.98072400
 H                 -2.19470900   -0.00547000    1.52724700
 H                 -3.07672400    0.15262100   -0.81050600
 H                 -1.79736200   -0.94017400   -1.37286400
 H                 -3.04010800   -1.53331200   -0.26260700
 O                  1.39404500   -0.90123100    1.41922800
 H                  2.34561000   -0.73744200    1.32041100

