%chk=ethyl_propiolate.chk 
%nprocshared=24 
%mem=12GB 
# ccsd(t)/6-311++g(d,p) sp 

Title Card Required

0 2
 C                  1.28635500   -1.41003900   -1.16344000
 H                  1.65508600   -2.29305300   -1.63643000
 C                  0.95337500   -0.51135700   -0.34148700
 C                  0.35785900    0.86896300   -0.19852200
 O                  0.96769000    1.84853600   -0.50338600
 O                 -0.83151400    0.92564200    0.38956700
 C                 -1.57730800   -0.27436000    0.67488400
 C                 -2.42166700   -0.67087600   -0.51940800
 H                 -0.89923500   -1.06703400    0.99161000
 H                 -2.19876500   -0.00087500    1.52606500
 H                 -3.07480000    0.15187300   -0.81304100
 H                 -1.79359100   -0.94065400   -1.37136700
 H                 -3.03963600   -1.53414300   -0.26415400
 O                  1.35861500   -0.87167600    1.29272100
 H                  2.31350100   -0.72424200    1.28870900

