%chk=ethyl_propiolate.chk 
%nprocshared=24 
%mem=12GB 
# ccsd(t)/6-311++g(d,p) sp 

Title Card Required

0 2
 C                  2.91459700    1.31166600    0.31917200
 H                  3.67801100    2.03811600    0.47386700
 C                  2.05827300    0.49220200    0.14455600
 C                  1.05008800   -0.53018500   -0.09337000
 O                  1.27988700   -1.61046100   -0.55540600
 O                 -0.16433200   -0.09911200    0.26987100
 C                 -1.24447500   -1.03260700    0.04955500
 C                 -2.49612300   -0.40860000    0.60590100
 H                 -1.31869600   -1.22219500   -1.02316700
 H                 -0.99671500   -1.97123900    0.54889400
 H                 -2.41694300   -0.21372500    1.67529700
 H                 -2.72552100    0.54818800    0.10520000
 H                 -3.36187800   -1.04141500    0.40504200
 O                 -2.29238100    1.83805900   -0.60099700
 H                 -1.35725900    1.81523200   -0.32809600

