%chk=ethyl_propiolate.chk 
%nprocshared=24 
%mem=12GB 
# ccsd(t)/6-311++g(d,p) sp 

Title Card Required

0 2
 C                  2.29627900   -1.13455600    0.00000500
 H                  3.06439200   -1.88042100    0.00000800
 C                  1.12868700   -0.73783800    0.00000500
 C                  0.00953000    0.19236400    0.00000500
 O                  0.16741300    1.38453000    0.00000900
 O                 -1.16213500   -0.42863800   -0.00000100
 C                 -2.32392100    0.42847100   -0.00000200
 C                 -3.53829500   -0.46958200   -0.00000500
 H                 -2.27981000    1.06755300    0.88399200
 H                 -2.27980700    1.06755600   -0.88399400
 H                 -3.54682100   -1.10509700   -0.88624300
 H                 -3.54682400   -1.10510000    0.88623000
 H                 -4.44363600    0.13958600   -0.00000600
 O                  3.45967100    0.37990800   -0.00001200
 H                  2.81839800    1.10911500   -0.00000400

