%chk=ethyl_propiolate.chk 
%nprocshared=24 
%mem=12GB 
# ccsd(t)/6-311++g(d,p) sp 

Title Card Required

0 2
 C                 -2.52202800    0.21403200   -1.13622300
 H                 -3.41086300    0.46855200   -1.66602300
 C                 -1.53325300    0.01842300   -0.44886300
 C                 -0.25798200   -0.59180700   -0.02871400
 O                 -0.18449500   -1.66119700    0.50455500
 O                  0.76062000    0.20499900   -0.31791800
 C                  2.05288000   -0.25575600    0.12507800
 C                  3.05820300    0.80268600   -0.26244000
 H                  2.00853200   -0.40964500    1.20510100
 H                  2.25841400   -1.21823200   -0.34785700
 H                  3.06790900    0.94732600   -1.34339900
 H                  2.81604500    1.75278600    0.21480800
 H                  4.05561500    0.49569800    0.05657900
 O                 -1.69803500    1.14103000    1.14920900
 H                 -2.48962600    0.73197400    1.53073000

