%chk=ethyl_propiolate.chk 
%nprocshared=24 
%mem=12GB 
# ccsd(t)/6-311++g(d,p) sp 

Title Card Required

0 2
 C                  2.22807800   -1.23821200    0.00000400
 H                  3.09302700   -1.86088000    0.00000500
 C                  1.13374900   -0.72863100    0.00000500
 C                  0.00961000    0.19268800    0.00000500
 O                  0.16589700    1.38562100    0.00000900
 O                 -1.16209300   -0.42845200   -0.00000100
 C                 -2.32354100    0.42833900   -0.00000200
 C                 -3.53814700   -0.46963200   -0.00000500
 H                 -2.27983600    1.06765500    0.88388700
 H                 -2.27983300    1.06765700   -0.88389000
 H                 -3.54654500   -1.10526200   -0.88616800
 H                 -3.54654800   -1.10526300    0.88615800
 H                 -4.44357100    0.13947000   -0.00000600
 O                  3.50538200    0.44572000   -0.00001200
 H                  2.83166700    1.14794200   -0.00001000

