%chk=ethyl_propiolate.chk 
%nprocshared=24 
%mem=12GB 
# ccsd(t)/6-311++g(d,p) sp 

Title Card Required

0 2
 C                 -2.53678800    0.22102500   -1.14347300
 H                 -3.44746700    0.52357900   -1.60513900
 C                 -1.50261700   -0.10123700   -0.62497300
 C                 -0.25427900   -0.61281600   -0.06162600
 O                 -0.17863600   -1.65816200    0.52097300
 O                  0.76045200    0.20331900   -0.31896400
 C                  2.05087700   -0.25193600    0.13246600
 C                  3.05771900    0.80295200   -0.26166000
 H                  2.00714300   -0.40049500    1.21312900
 H                  2.25729100   -1.21746300   -0.33461300
 H                  3.06480800    0.94358400   -1.34316100
 H                  2.81934200    1.75561700    0.21246500
 H                  4.05526800    0.49508200    0.05614800
 O                 -1.71385000    1.23259400    1.28164900
 H                 -2.49336800    0.73702700    1.58335400

