%chk=ethyl_propiolate.chk 
%nprocshared=24 
%mem=12GB 
# ccsd(t)/6-311++g(d,p) sp 

Title Card Required

0 2
 C                 -2.51681500    0.20690600   -1.14185400
 H                 -3.40558400    0.46355500   -1.67179200
 C                 -1.54524800    0.06741100   -0.37920300
 C                 -0.25850800   -0.59012200   -0.02670700
 O                 -0.18567200   -1.66169800    0.50136900
 O                  0.76044400    0.20424000   -0.31922900
 C                  2.05313800   -0.25605700    0.12444000
 C                  3.05823500    0.80261000   -0.26259000
 H                  2.00734100   -0.40942500    1.20448200
 H                  2.25907900   -1.21854600   -0.34813300
 H                  3.06823100    0.94724500   -1.34356100
 H                  2.81582700    1.75257600    0.21473600
 H                  4.05560100    0.49561000    0.05655900
 O                 -1.69228100    1.11085100    1.10647100
 H                 -2.48071100    0.72239000    1.51034100

