%chk=ethyl_propiolate.chk 
%nprocshared=24 
%mem=12GB 
# ccsd(t)/6-311++g(d,p) sp 

Title Card Required

0 2
 C                  2.33193700   -1.08244700    0.00000400
 H                  3.03721400   -1.89341900    0.00000800
 C                  1.12264500   -0.74657600    0.00000500
 C                  0.01058000    0.19246700    0.00000500
 O                  0.16794600    1.38479400    0.00000900
 O                 -1.16221200   -0.42841500   -0.00000100
 C                 -2.32397700    0.42850300   -0.00000200
 C                 -3.53832900   -0.46960300   -0.00000500
 H                 -2.27999800    1.06762700    0.88399300
 H                 -2.27999400    1.06762900   -0.88399400
 H                 -3.54684000   -1.10511100   -0.88625700
 H                 -3.54684300   -1.10511400    0.88624400
 H                 -4.44371900    0.13949000   -0.00000600
 O                  3.43856200    0.34899600   -0.00001200
 H                  2.80970200    1.08709700   -0.00000400

