%nprocshared=4
%mem=150MW
%chk=ethyl_propiolate.chk
# ccsd(t)/6-311++g(d,p) sp

Title Card Required

0 2
 C                  2.24635600   -0.38024800   -0.05802400
 H                  3.58281600   -0.88363900   -0.14573900
 C                  1.13972900    0.09857400   -0.01302300
 C                 -0.21359300    0.64364500   -0.00004700
 O                 -0.44980700    1.81900900    0.01625400
 O                 -1.12551700   -0.32450600   -0.00605900
 C                 -2.49891800    0.11402000    0.01263300
 C                 -3.35989100   -1.12744600    0.00002600
 H                 -2.65620200    0.71898400    0.90795800
 H                 -2.67177300    0.74816900   -0.85930500
 H                 -3.16977400   -1.71663000   -0.89781500
 H                 -3.15276500   -1.74627600    0.87382300
 H                 -4.41365800   -0.84411900    0.01468700
 O                  4.56662000   -0.57426800    0.09298500
 H                  4.66889700    0.27036200   -0.36843600

