%nprocshared=4
%mem=150MW
%chk=ethyl_propiolate.chk
# opt=(calcfc,tight,ts,noeigentest) freq 6-311++g(d,p) m062x

Title Card Required

0 2
 C                  3.30925900   -0.54855900   -0.45725600
 H                  4.29645500   -0.83466900   -0.74841900
 C                  2.19806500   -0.22513900   -0.12971800
 C                  0.87191500    0.20356500    0.28329900
 O                  0.63873800    1.25148400    0.83516900
 O                 -0.05028500   -0.71758300   -0.01862700
 C                 -1.37972200   -0.41496900    0.36973000
 C                 -2.28492300   -1.52443300   -0.08957000
 H                 -1.42150000   -0.18492400    1.43825800
 H                 -1.69851700    0.60489100   -0.18710900
 H                 -2.21642400   -1.64493000   -1.17311800
 H                 -2.00415400   -2.46999600    0.38591800
 H                 -3.31885500   -1.29176700    0.17446500
 O                 -1.70276700    1.80092700   -0.76070200
 H                 -1.01005700    2.19997800   -0.19562900

