%chk=ethyl_propiolate.chk 
%nprocshared=24 
%mem=12GB 
# ccsd(t)/6-311++g(d,p) sp 

Title Card Required

0 2
 C                 -1.74966500   -0.11974900    1.09755500
 H                 -2.57195900   -0.58336700    1.59055100
 C                 -0.80315300    0.41938100    0.58683300
 C                  0.33349900    1.12704100   -0.01162600
 O                  0.40453300    2.31991400    0.01840800
 O                  1.27025500    0.37863200   -0.59326400
 C                  1.18841100   -1.06205700   -0.58120800
 C                  1.75860500   -1.62557000    0.70492300
 H                  0.15518800   -1.37504400   -0.74527700
 H                  1.78417000   -1.36213100   -1.44179700
 H                  2.78245200   -1.27838400    0.85027300
 H                  1.15912100   -1.32563000    1.56617400
 H                  1.76344100   -2.71629200    0.65720400
 O                 -2.37887200   -1.18566100   -0.84603300
 H                 -2.56270600   -0.35546800   -1.31646300

