%chk=ethyl_propiolate.chk 
%nprocshared=24 
%mem=12GB 
# ccsd(t)/6-311++g(d,p) sp 

Title Card Required

0 2
 C                 -1.81591800   -0.23386300    0.87421100
 H                 -2.54553100   -0.57867300    1.58086100
 C                 -0.80072400    0.42117400    0.58280500
 C                  0.33205700    1.12456900   -0.01268300
 O                  0.40043800    2.32020800    0.02125800
 O                  1.27195900    0.37865000   -0.59015700
 C                  1.18778000   -1.06317700   -0.58177100
 C                  1.75783400   -1.62640100    0.70455700
 H                  0.15391100   -1.37418400   -0.74921300
 H                  1.78487800   -1.36161700   -1.44181700
 H                  2.78154900   -1.27915600    0.85054300
 H                  1.15904900   -1.32703500    1.56693400
 H                  1.76219800   -2.71705100    0.65765800
 O                 -2.33001700   -1.09948000   -0.68328500
 H                 -2.52984300   -0.34150100   -1.25123600

