%chk=ethyl_propiolate.chk 
%nprocshared=24 
%mem=12GB 
# ccsd(t)/6-311++g(d,p) sp 

Title Card Required

0 2
 C                 -1.84223700   -0.27868900    0.78232600
 H                 -2.50522600   -0.55770100    1.58687000
 C                 -0.79598500    0.42615100    0.59495600
 C                  0.32915300    1.12297100   -0.01291000
 O                  0.40002400    2.32075300    0.02088800
 O                  1.27326700    0.37822400   -0.58984500
 C                  1.18763200   -1.06252900   -0.58171700
 C                  1.75765200   -1.62661100    0.70447300
 H                  0.15386400   -1.37412800   -0.74961900
 H                  1.78400100   -1.36263000   -1.44181800
 H                  2.78129200   -1.27896300    0.84994700
 H                  1.15955200   -1.32686800    1.56725300
 H                  1.76224300   -2.71730400    0.65801300
 O                 -2.31509500   -1.07024600   -0.62549400
 H                 -2.52489200   -0.33914100   -1.22054700

