%chk=ethyl_propiolate.chk 
%nprocshared=24 
%mem=12GB 
# ccsd(t)/6-311++g(d,p) sp 

Title Card Required

0 2
 C                 -1.83752800   -0.27001100    0.80082700
 H                 -2.51343800   -0.56126300    1.58847000
 C                 -0.79646600    0.42544900    0.59230500
 C                  0.32990900    1.12328300   -0.01286500
 O                  0.40007100    2.32069600    0.02099800
 O                  1.27298100    0.37832900   -0.58989500
 C                  1.18762300   -1.06271000   -0.58173300
 C                  1.75769300   -1.62655700    0.70448700
 H                  0.15376600   -1.37409400   -0.74957700
 H                  1.78415400   -1.36239800   -1.44182800
 H                  2.78134600   -1.27899900    0.85009600
 H                  1.15947100   -1.32694700    1.56723200
 H                  1.76221100   -2.71723700    0.65794000
 O                 -2.31803900   -1.07621000   -0.63723800
 H                 -2.52594600   -0.33907400   -1.22609600

