%chk=ethyl_propiolate.chk 
%nprocshared=24 
%mem=12GB 
# ccsd(t)/6-311++g(d,p) sp 

Title Card Required

0 2
 C                 -1.79293300   -0.19675600    0.94653200
 H                 -2.56989900   -0.59546700    1.56039800
 C                 -0.80546200    0.41689100    0.57655900
 C                  0.33278600    1.12560400   -0.01260300
 O                  0.40116100    2.31961400    0.02119700
 O                  1.27138500    0.37872000   -0.59063200
 C                  1.18819700   -1.06313800   -0.58175400
 C                  1.75790300   -1.62634700    0.70466800
 H                  0.15479900   -1.37464200   -0.74850900
 H                  1.78559300   -1.36128800   -1.44173000
 H                  2.78169500   -1.27935000    0.85075700
 H                  1.15855300   -1.32675300    1.56640700
 H                  1.76226100   -2.71702600    0.65749200
 O                 -2.34299600   -1.12305600   -0.72951800
 H                 -2.53494700   -0.34652600   -1.27812100

