!Put Keywords Here, check Charge and Multiplicity.
#

 12182

0  1
O          -0.57430         0.43390         0.43510
O           0.28690        -1.64550        -0.10360
C          -1.63500         0.55870        -0.51790
C          -2.94130         0.17800         0.14550
C           0.40680        -0.44710         0.10290
C           1.69220         0.19420         0.00880
C           2.76470         0.72760        -0.07090
H          -1.66980         1.60410        -0.84070
H          -1.45890        -0.06330        -1.40350
H          -3.77930         0.29200        -0.54780
H          -2.90870        -0.86000         0.49240
H          -3.12390         0.80240         1.02630
H           3.71610         1.20080        -0.14160

