%nprocshared=24
%mem=12GB
%chk=ethyl_propiolate.chk
# opt=(calcfc,tight,noeigentest) freq 6-31+g m062x

12182

0 1
 O                 -0.66010000   -0.18350000   -0.69650000
 O                  0.70830000   -1.74140000    0.33100000
 C                 -1.84710000   -0.27890000    0.09770000
 C                 -2.43450000    1.10500000    0.27480000
 C                  0.47930000   -0.61980000   -0.09620000
 C                  1.46530000    0.42460000    0.00310000
 C                  2.28880000    1.29410000    0.08600000
 H                 -2.55420000   -0.92270000   -0.43510000
 H                 -1.64410000   -0.73070000    1.07600000
 H                 -3.36160000    1.06470000    0.85330000
 H                 -1.72550000    1.76160000    0.78980000
 H                 -2.64420000    1.56300000   -0.69740000
 H                  3.01910000    2.06570000    0.15950000

 1 3 1.0 5 1.0
 2 5 2.0
 3 4 1.0 8 1.0 9 1.0
 4 10 1.0 11 1.0 12 1.0
 5 6 1.0
 6 7 3.0
 7 13 1.0
 8
 9
 10
 11
 12
 13

