%nprocshared=24
%mem=12GB
%chk=ethyl_propiolate.chk
# opt=(calcfc,tight,noeigentest) freq 6-31+g m062x

0  1
O          -0.49850        -0.68240         0.60380
O          -0.04770         1.51860         0.04920
C          -1.62620        -0.96190        -0.23250
C          -2.51520         0.26210        -0.28680
C           0.28510         0.35240         0.19880
C           1.63720        -0.06940        -0.05890
C           2.76530        -0.41930        -0.27350
H          -1.29030        -1.26980        -1.22850
H          -2.16490        -1.79930         0.22130
H          -3.50880        -0.01860        -0.65220
H          -2.62830         0.72860         0.69720
H          -2.13440         1.01390        -0.98440
H           3.76600        -0.72990        -0.46390

