!Put Keywords Here, check Charge and Multiplicity.
#

 12182

0  1
O           1.05666        -0.16020         0.05788
O           3.05008         0.44508         1.04495
C           0.35895         0.09272         1.28536
C           0.45769        -1.09758         2.22155
C           2.39139         0.08758         0.08038
C           3.00393        -0.09908        -1.21283
C           3.52159        -0.23545        -2.28974
H           0.72188         1.01004         1.76378
H          -0.69055         0.26284         1.02306
H           1.48875        -1.25177         2.55454
H          -0.17073        -0.94680         3.10431
H           0.14344        -2.01597         1.71546
H           3.98895        -0.34590        -3.23988

