%nprocshared=24
%mem=12GB
%chk=ethyl_propiolate.chk
# opt=(calcfc,tight,noeigentest) freq 6-31+g m062x


 12182

0  1
O           1.19130        -0.21440        -0.07369
O           3.18364        -0.33417         1.07994
C           0.48974        -0.76722         1.04940
C           0.59545        -2.28120         1.07167
C           2.52495        -0.02660         0.09825
C           3.13696         0.62536        -1.03539
C           3.66161         1.18176        -1.96383
H           0.84127        -0.32715         1.99006
H          -0.56110        -0.48073         0.93586
H           1.62591        -2.60215         1.25275
H          -0.03863        -2.69987         1.85912
H           0.29066        -2.70570         0.10987
H           4.13585         1.67923        -2.77635

