%nprocshared=24
%mem=12GB
%chk=ethyl_propiolate.chk
# opt=(calcfc,tight,noeigentest) freq 6-31+g m062x


 12182

0  1
O           1.09556        -0.18164         0.01889
O           3.08073         0.82285         0.62302
C           0.39335         0.58833         1.00429
C           0.49863        -0.05680         2.37379
C           2.42771         0.06379        -0.07626
C           3.04289        -0.67784        -1.15122
C           3.56102        -1.27821        -2.05395
H           0.74911         1.62519         1.02150
H          -0.65676         0.61591         0.69467
H           1.53107        -0.04326         2.73649
H          -0.12846         0.47153         3.09805
H           0.18675        -1.10526         2.33335
H           4.02701        -1.80177        -2.85699

