%chk=E:\Research\Ethyl_Propiolate\conformers\conformer_00002F9600000004.chk
# hf/3-21g geom=connectivity

12182

0 1
 O                 -0.66000000   -0.18300000    0.69630000
 O                  0.70810000   -1.74130000   -0.33080000
 C                 -1.84750000   -0.27900000   -0.09720000
 C                 -2.43500000    1.10470000   -0.27500000
 C                  0.47920000   -0.61940000    0.09570000
 C                  1.46580000    0.42430000   -0.00270000
 C                  2.28930000    1.29370000   -0.08620000
 H                 -1.64490000   -0.73150000   -1.07520000
 H                 -2.55410000   -0.92240000    0.43640000
 H                 -3.36240000    1.06400000   -0.85300000
 H                 -2.64420000    1.56350000    0.69700000
 H                 -1.72630000    1.76100000   -0.79080000
 H                  3.01970000    2.06520000   -0.16030000

 1 3 1.0 5 1.0
 2 5 2.0
 3 4 1.0 8 1.0 9 1.0
 4 10 1.0 11 1.0 12 1.0
 5 6 1.0
 6 7 3.0
 7 13 1.0
 8
 9
 10
 11
 12
 13

