%chk=ethyl_propiolate_non_planar.chk
%mem=12GB
%nprocshared=24
# irc=(calcfc,maxpoints=10,maxcycle=900,stepsize=5) 6-311++g(d,p) m062x

Title Card Required

0 2
 C                  2.74147400   -0.40897400    0.41520500
 H                  3.78425100   -0.45088800    0.62939000
 C                  1.56865000   -0.27328100    0.14010500
 C                  0.15919900   -0.57576100   -0.14133500
 O                 -0.20389000   -1.14672900   -1.12795500
 O                 -0.62170700   -0.15120900    0.84893400
 C                 -2.04102400   -0.30280400    0.63890900
 C                 -2.56407000    0.78447000   -0.27853600
 H                 -2.46629800   -0.23044400    1.63827400
 H                 -2.23098900   -1.29723600    0.23363000
 H                 -3.64670900    0.68816600   -0.38109900
 H                 -2.33910000    1.76973200    0.13205100
 H                 -2.11392900    0.70142200   -1.26799800
 O                  1.40108600    1.67717700   -0.39529800
 H                  1.49594700    2.04431900    0.49764200

