%chk=ethyl_propiolate_non_planar.chk
%mem=12GB
%nprocshared=24
# irc=(calcfc,maxpoints=10,maxcycle=900,stepsize=5) 6-311++g(d,p) m062x

Title Card Required

0 2
 C                  2.74037683   -0.41069836    0.41519015
 H                  3.78287883   -0.45620036    0.63051615
 C                  1.56781683   -0.25286236    0.13451215
 C                  0.15894983   -0.57428736   -0.14171885
 O                 -0.20300517   -1.14728836   -1.12736885
 O                 -0.62174617   -0.15162936    0.84909615
 C                 -2.04118817   -0.30303136    0.63900715
 C                 -2.56394717    0.78440064   -0.27846485
 H                 -2.46641517   -0.23057736    1.63836615
 H                 -2.23128017   -1.29745136    0.23378315
 H                 -3.64658017    0.68806564   -0.38107885
 H                 -2.33884517    1.76961464    0.13210015
 H                 -2.11376117    0.70145064   -1.26792085
 O                  1.40203083    1.66390464   -0.39175085
 H                  1.49520383    2.03975464    0.49729015

