%nprocshared=24
%mem=12GB
%chk=ethyl_propiolate_ts1.chk
# freq 6-311++g(d,p) m062x

Title Card Required

0 2
C       -2.78862700     -0.44895000     -0.42630400
H       -3.83467300     -0.45601600     -0.64032800
C       -1.62140700     -0.09035500     -0.07902000
C       -0.22288100     -0.59855100      0.13254500
O        0.13513600     -1.21887200      1.09034100
O        0.56242100     -0.14865100     -0.84337300
C        1.98214100     -0.30502400     -0.63631200
C        2.50073000      0.74895200      0.32229600
H        2.40948600     -0.19442800     -1.63121200
H        2.17362100     -1.31337400     -0.26809000
H        3.58325100      0.64993400      0.42355300
H        2.27499100      1.74846300     -0.05162500
H        2.04885800      0.62919500      1.30726700
O       -1.47341200      1.50659000      0.42661100
H       -1.54843400      1.98726500     -0.40743400

