%chk=ethyl_propiolate_non_planar.chk
%mem=12GB
%nprocshared=24
# ccsd(t)/6-311++g(d,p) sp

Title Card Required

0 2
 C                  2.72845800   -0.43612200    0.41665100
 H                  3.77486600   -0.45020200    0.62855100
 C                  1.56034800   -0.06589200    0.08491800
 C                  0.16191400   -0.56713600   -0.14320100
 O                 -0.19715900   -1.15157200   -1.12291900
 O                 -0.62215000   -0.15474700    0.85012900
 C                 -2.04207700   -0.30460100    0.63969200
 C                 -2.56318500    0.78397000   -0.27801600
 H                 -2.46785700   -0.23165500    1.63872700
 H                 -2.23329100   -1.29866800    0.23436400
 H                 -3.64578600    0.68779300   -0.38113100
 H                 -2.33769400    1.76902300    0.13262100
 H                 -2.11285300    0.70152100   -1.26751100
 O                  1.41011500    1.54869000   -0.36044800
 H                  1.48610900    1.99793700    0.49085100

