%chk=ethyl_propiolate_non_planar.chk
%mem=12GB
%nprocshared=24
# irc=(calcfc,maxpoints=10,maxcycle=900,stepsize=5) 6-311++g(d,p) m062x

Title Card Required

0 2
 C                  2.75113600   -0.40572400    0.41794900
 H                  3.79732500   -0.40074500    0.61749600
 C                  1.57369800   -0.38816200    0.17479500
 C                  0.16111500   -0.59562100   -0.13580800
 O                 -0.21209000   -1.14211900   -1.13348000
 O                 -0.61991800   -0.14959200    0.84735800
 C                 -2.03937200   -0.29981200    0.63782500
 C                 -2.56510800    0.78587900   -0.27935700
 H                 -2.46423500   -0.22787700    1.63750800
 H                 -2.22896200   -1.29435400    0.23242400
 H                 -3.64782700    0.68854200   -0.38031700
 H                 -2.34133800    1.77171800    0.13073400
 H                 -2.11588800    0.70255900   -1.26908300
 O                  1.39432900    1.76150500   -0.41823700
 H                  1.48789700    2.06148600    0.50102900

