%chk=ethyl_propiolate_non_planar.chk
%mem=12GB
%nprocshared=24
# ccsd(t)/6-311++g(d,p) sp

Title Card Required

0 2
 C                  2.74779600   -0.40572700    0.41664300
 H                  3.79277700   -0.41965700    0.62210900
 C                  1.57188800   -0.35137500    0.16309100
 C                  0.16045000   -0.58699900   -0.13821800
 O                 -0.20891300   -1.14380100   -1.13134600
 O                 -0.62092400   -0.14975500    0.84794800
 C                 -2.04009200   -0.30119900    0.63826100
 C                 -2.56477400    0.78516200   -0.27895700
 H                 -2.46528500   -0.22932300    1.63777400
 H                 -2.22952600   -1.29569200    0.23273700
 H                 -3.64745400    0.68847100   -0.38078600
 H                 -2.34051300    1.77070500    0.13153400
 H                 -2.11503900    0.70194900   -1.26851600
 O                  1.39671100    1.73259700   -0.41032500
 H                  1.49353500    2.05726200    0.49981200

