%nprocshared=24
%mem=12GB
%chk=ethyl_propiolate_ts1.chk
# freq 6-311++g(d,p) m062x

Title Card Required

0 2
C       -2.80763600     -0.43837200     -0.39439200
H       -3.85218800     -0.46382500     -0.60111800
C       -1.63235000     -0.36075600     -0.13786600
C       -0.22124800     -0.60735300      0.16138900
O        0.14713500     -1.15230200      1.16127200
O        0.55934800     -0.19043200     -0.83376100
C        1.97862100     -0.33909500     -0.62283700
C        2.50400200      0.76229000      0.27599300
H        2.40299500     -0.28367900     -1.62372700
H        2.16823100     -1.32683300     -0.20124400
H        3.58673500      0.66715300      0.37867500
H        2.27944500      1.74093500     -0.15049900
H        2.05500900      0.69549700      1.26715800
O       -1.45806600      1.69899000      0.39199100
H       -1.55589600      2.02042300     -0.51898100

