%nprocshared=24
%mem=12GB
%chk=ethyl_propiolate_ts1.chk
# freq 6-311++g(d,p) m062x

Title Card Required

0 2
C       -2.80952500     -0.43942800     -0.39226900
H       -3.85476400     -0.45714400     -0.59612800
C       -1.63328500     -0.38036500     -0.14132600
C       -0.22156900     -0.61033200      0.16303700
O        0.14879800     -1.14675200      1.16695100
O        0.55876100     -0.19378100     -0.83286500
C        1.97812700     -0.34147400     -0.62184400
C        2.50436300      0.76329700      0.27220300
H        2.40211700     -0.29034000     -1.62314200
H        2.16767100     -1.32749800     -0.19619000
H        3.58713000      0.66826800      0.37467400
H        2.27998300      1.74028500     -0.15819000
H        2.05581400      0.70063400      1.26381300
O       -1.45658600      1.71488300      0.38890700
H       -1.55440300      2.02080800     -0.52759300

