%chk=ethyl_propiolate.chk 
%nprocshared=24 
%mem=12GB 
# ccsd(t)/6-311++g(d,p) sp 

Title Card Required

0 2
 C                 -1.64831700   -0.31239300   -0.04598600
 H                 -2.96692500   -0.92838800    0.04255000
 C                 -0.61869500    0.32213600   -0.03514300
 C                  0.65508700    1.04925400    0.02265100
 O                  0.68742300    2.19812600    0.34800100
 O                  1.75635400    0.38063500   -0.31776100
 C                  1.71383100   -1.02701700   -0.61529600
 C                  1.76749400   -1.85145600    0.65529300
 H                  0.82597500   -1.25142400   -1.20920800
 H                  2.59523800   -1.19121400   -1.23304500
 H                  2.65388200   -1.59302700    1.23612400
 H                  0.88136500   -1.68237800    1.26920900
 H                  1.81144900   -2.91318700    0.40472100
 O                 -3.95588400   -0.61911100   -0.08193800
 H                 -4.06138700    0.12273900    0.53018400

