%chk=ethyl_propiolate.chk 
%nprocshared=24 
%mem=12GB 
# ccsd(t)/6-311++g(d,p) sp 

Title Card Required

0 2
 C                 -1.65270100   -0.31346900   -0.04443300
 H                 -2.85373600   -0.86937200    0.01128500
 C                 -0.62124400    0.31891100   -0.03504800
 C                  0.65331100    1.04905300    0.02231400
 O                  0.68741100    2.19794600    0.34801800
 O                  1.75596800    0.38055900   -0.31775400
 C                  1.71381400   -1.02696800   -0.61527400
 C                  1.76748700   -1.85146400    0.65532200
 H                  0.82602700   -1.25175500   -1.20911300
 H                  2.59531900   -1.19131500   -1.23291600
 H                  2.65385100   -1.59293400    1.23618200
 H                  0.88133200   -1.68215700    1.26913300
 H                  1.81143900   -2.91326100    0.40495600
 O                 -3.95548300   -0.61966200   -0.08070200
 H                 -4.06994900    0.13036600    0.52448600

