%chk=ethyl_propiolate.chk 
%nprocshared=24 
%mem=12GB 
# ccsd(t)/6-311++g(d,p) sp 

Title Card Required

0 2
 C                 -1.65026500   -0.31284100   -0.04526800
 H                 -2.92514300   -0.90063400    0.02709600
 C                 -0.61983700    0.32069500   -0.03507800
 C                  0.65429900    1.04916300    0.02248900
 O                  0.68738700    2.19801800    0.34801900
 O                  1.75614400    0.38061200   -0.31774900
 C                  1.71382300   -1.02698700   -0.61529100
 C                  1.76749600   -1.85146600    0.65528700
 H                  0.82600500   -1.25154200   -1.20919800
 H                  2.59527400   -1.19118700   -1.23300500
 H                  2.65388000   -1.59300800    1.23612300
 H                  0.88134900   -1.68233700    1.26915200
 H                  1.81146900   -2.91320900    0.40474000
 O                 -3.95512000   -0.61947300   -0.08126800
 H                 -4.06518900    0.12619600    0.52713300

