%chk=ethyl_propiolate.chk 
%nprocshared=24 
%mem=12GB 
# ccsd(t)/6-311++g(d,p) sp 

Title Card Required

0 2
 C                 -1.65328300   -0.31363600   -0.04422500
 H                 -2.82806300   -0.86275000    0.00815800
 C                 -0.62160900    0.31842300   -0.03504900
 C                  0.65302800    1.04903400    0.02227500
 O                  0.68743300    2.19794100    0.34802500
 O                  1.75593400    0.38054500   -0.31775400
 C                  1.71381400   -1.02695300   -0.61527200
 C                  1.76748600   -1.85146700    0.65532400
 H                  0.82604100   -1.25179200   -1.20909800
 H                  2.59533900   -1.19133600   -1.23289500
 H                  2.65384900   -1.59292400    1.23618600
 H                  0.88132700   -1.68212200    1.26911500
 H                  1.81144400   -2.91327500    0.40497700
 O                 -3.95607700   -0.61962400   -0.08061600
 H                 -4.07120700    0.13147800    0.52401200

