%chk=ethyl_propiolate.chk 
%nprocshared=24 
%mem=12GB 
# ccsd(t)/6-311++g(d,p) sp 

Title Card Required

0 2
 C                 -1.64448600   -0.31151100   -0.04765100
 H                 -3.03781800   -0.99292300    0.08346200
 C                 -0.61639600    0.32479000   -0.03538500
 C                  0.65655200    1.04957000    0.02298600
 O                  0.68770500    2.19850100    0.34795700
 O                  1.75692300    0.38064400   -0.31780900
 C                  1.71387300   -1.02707800   -0.61528200
 C                  1.76747000   -1.85140900    0.65538300
 H                  0.82594800   -1.25125500   -1.20914500
 H                  2.59521800   -1.19149800   -1.23302400
 H                  2.65385800   -1.59299300    1.23621600
 H                  0.88140800   -1.68221300    1.26939000
 H                  1.81134000   -2.91317200    0.40496400
 O                 -3.95855300   -0.61789500   -0.08381000
 H                 -4.05288600    0.11541400    0.53774100

