%chk=ethyl_propiolate.chk 
%nprocshared=24 
%mem=12GB 
# ccsd(t)/6-311++g(d,p) sp 

Title Card Required

0 2
 C                 -1.64635900   -0.31197800   -0.04677100
 H                 -3.00387800   -0.95982500    0.06194300
 C                 -0.61754000    0.32350100   -0.03525500
 C                  0.65584100    1.04939800    0.02280300
 O                  0.68753600    2.19829200    0.34796800
 O                  1.75661700    0.38063700   -0.31778900
 C                  1.71384800   -1.02706300   -0.61528500
 C                  1.76747900   -1.85142600    0.65535300
 H                  0.82595600   -1.25138000   -1.20916500
 H                  2.59522000   -1.19138500   -1.23302700
 H                  2.65385900   -1.59298900    1.23619300
 H                  0.88139100   -1.68226500    1.26932600
 H                  1.81137400   -2.91318300    0.40491700
 O                 -3.95713000   -0.61854100   -0.08282100
 H                 -4.05707800    0.11926500    0.53362900

