%chk=ethyl_propiolate.chk 
%nprocshared=24 
%mem=12GB 
# ccsd(t)/6-311++g(d,p) sp 

Title Card Required

0 2
 C                 -1.64539700   -0.31174200   -0.04720800
 H                 -3.02137300   -0.97606600    0.07237300
 C                 -0.61696100    0.32416300   -0.03531600
 C                  0.65620400    1.04947700    0.02289300
 O                  0.68760900    2.19838900    0.34796100
 O                  1.75676300    0.38064000   -0.31780000
 C                  1.71385800   -1.02707400   -0.61528300
 C                  1.76747400   -1.85141700    0.65537000
 H                  0.82594900   -1.25132200   -1.20915600
 H                  2.59521500   -1.19143900   -1.23302700
 H                  2.65385800   -1.59299000    1.23620500
 H                  0.88139800   -1.68224200    1.26936100
 H                  1.81135500   -2.91317700    0.40494300
 O                 -3.95781600   -0.61823800   -0.08329500
 H                 -4.05499600    0.11737600    0.53559800

