%chk=ethyl_propiolate_planar.chk
%mem=12GB
%nprocshared=24
# opt=(tight,calcfc,noeigentest) freq m062x/6-311++g(d,p) geom=connectivity

Title Card Required

0 1
 C                 -0.30192113   -0.13372028    0.20680557
 H                 -1.35998782   -0.19187885    0.05843958
 C                  0.88588240   -0.06843116    0.37336352
 C                  2.40870742    0.01527295    0.58689940
 O                  3.13013645   -0.99386421    0.37535063
 O                  3.00295350    1.23974499    1.02557904
 C                  3.35991617    2.03044652   -0.11120095
 C                  3.99987349    3.34910871    0.36122328
 H                  2.48319539    2.24523692   -0.68576667
 H                  4.05908921    1.49108658   -0.71547565
 H                  4.26697143    3.94075251   -0.48937433
 H                  3.30070045    3.88846865    0.96549799
 H                  4.87659426    3.13431831    0.93578900

 1 2 1.0 3 3.0
 2
 3 4 1.0
 4 5 2.0 6 1.0
 5
 6 7 1.0
 7 8 1.0 9 1.0 10 1.0
 8 11 1.0 12 1.0 13 1.0
 9
 10
 11
 12
 13

