%nprocshared=24
%mem=12GB
%chk=ethyl_propiolate.chk
# ccsd(t)/6-311++g(d,p) sp

Title Card Required

0 1
 C                 -2.94732600   -0.92517300    0.00000500
 H                 -3.87222100   -1.45275400    0.00000700
 C                 -1.90677600   -0.33149400    0.00000100
 C                 -0.67136300    0.44037800   -0.00000300
 O                 -0.63147300    1.63901900   -0.00000900
 O                  0.39543300   -0.35895800    0.00000200
 C                  1.67116000    0.31028700   -0.00000100
 C                  2.73586200   -0.76167400    0.00000500
 H                  1.72666100    0.94976100   -0.88320000
 H                  1.72666000    0.94977000    0.88319100
 H                  2.64703600   -1.39145800    0.88590000
 H                  2.64703600   -1.39146700   -0.88588400
 H                  3.72380000   -0.29828500    0.00000300

