%chk=ethyl_propiolate.chk 
%nprocshared=24 
%mem=12GB 
# ccsd(t)/6-311++g(d,p) sp 

Title Card Required

0 2
 C                  3.27838500   -0.52360000   -0.44110400
 H                  4.27155600   -0.79105400   -0.71726500
 C                  2.16113400   -0.22417200   -0.13021900
 C                  0.82164100    0.18348500    0.25915400
 O                  0.56400700    1.24210200    0.76929400
 O                 -0.07129500   -0.76427300   -0.01850000
 C                 -1.42128200   -0.49343400    0.36346600
 C                 -2.29324600   -1.63191500   -0.08701400
 H                 -1.46349700   -0.28821800    1.43503900
 H                 -1.76121400    0.43223400   -0.16727500
 H                 -2.21440000   -1.76484400   -1.16649600
 H                 -2.00568600   -2.56273800    0.40544700
 H                 -3.33163400   -1.40873100    0.16186300
 O                 -1.91831700    1.80367800   -0.70886700
 H                 -1.19187000    2.19592000   -0.19038300

