%chk=ethyl_propiolate.chk 
%nprocshared=24 
%mem=12GB 
# ccsd(t)/6-311++g(d,p) sp 

Title Card Required

0 2
 C                  3.27810200   -0.52374400   -0.44103100
 H                  4.27163300   -0.79053900   -0.71715100
 C                  2.16049000   -0.22516300   -0.13048000
 C                  0.82539100    0.18748300    0.26072500
 O                  0.56606200    1.24115400    0.77133700
 O                 -0.08017500   -0.75967700   -0.01990300
 C                 -1.41432700   -0.48869200    0.35688800
 C                 -2.29515100   -1.61665700   -0.09158300
 H                 -1.47486200   -0.21789200    1.41226400
 H                 -1.78503900    0.68579500   -0.27071600
 H                 -2.21433700   -1.76393300   -1.16894000
 H                 -1.99506500   -2.54176600    0.41124200
 H                 -3.33340700   -1.40139100    0.16077300
 O                 -1.91479100    1.76106100   -0.69428800
 H                 -1.20726500    2.19233600   -0.19306000

