%chk=ethyl_propiolate.chk 
%nprocshared=24 
%mem=12GB 
# ccsd(t)/6-311++g(d,p) sp 

Title Card Required

0 2
 C                  2.91447400    1.31158900    0.31915700
 H                  3.67767100    2.03830000    0.47376100
 C                  2.05816200    0.49213700    0.14455900
 C                  1.05041700   -0.53045300   -0.09332100
 O                  1.27973700   -1.61070300   -0.55549900
 O                 -0.16394000   -0.09997600    0.27058600
 C                 -1.24421200   -1.03151100    0.04942000
 C                 -2.49111100   -0.39475500    0.59777900
 H                 -1.31800500   -1.22346900   -1.02290800
 H                 -1.00181900   -1.97035300    0.55191100
 H                 -2.42302100   -0.18991600    1.66580400
 H                 -2.67202100    0.58977100    0.08285700
 H                 -3.37613300   -0.99106300    0.37386600
 O                 -2.29825400    1.82040600   -0.59153000
 H                 -1.36012100    1.82503600   -0.33085700

