%chk=ethyl_propiolate.chk 
%nprocshared=24 
%mem=12GB 
# ccsd(t)/6-311++g(d,p) sp 

Title Card Required

0 2
 C                  2.91430900    1.31141600    0.31914600
 H                  3.67719500    2.03861100    0.47355100
 C                  2.05793200    0.49206400    0.14458700
 C                  1.05115400   -0.53054200   -0.09341100
 O                  1.27936000   -1.61091500   -0.55549800
 O                 -0.16400100   -0.10086100    0.27142000
 C                 -1.24403300   -1.02715700    0.04787100
 C                 -2.48524700   -0.39540600    0.59641900
 H                 -1.31908300   -1.22524300   -1.02334600
 H                 -1.01006300   -1.96978000    0.55544700
 H                 -2.42918000   -0.13205300    1.65057400
 H                 -2.57494000    0.84688400   -0.05848500
 H                 -3.39862700   -0.92224800    0.33027800
 O                 -2.30569200    1.79408900   -0.57729600
 H                 -1.36945100    1.83931400   -0.33836300

