%chk=ethyl_propiolate.chk
%nprocshared=24
%mem=12GB
# ccsd(t)/6-311++g(d,p) sp

Title Card Required

0 2
 O                  2.72122100   -1.48472300    0.02932300
 H                  1.79782800   -1.72139400   -0.16193100
 C                  2.47793400    0.60091900    0.26925500
 H                  3.52812300    0.66510400    0.43860600
 C                  1.29167700    0.75127800    0.10731500
 C                 -0.14549900    0.74731500   -0.10935300
 O                 -0.84457900    1.71922800   -0.07803700
 O                 -0.56270200   -0.50128400   -0.35292900
 C                 -1.98122800   -0.66675600   -0.57178400
 C                 -2.73493400   -0.68875500    0.74288100
 H                 -2.05807700   -1.61631500   -1.09831200
 H                 -2.32793000    0.13838500   -1.22029500
 H                 -3.79141800   -0.88796700    0.55357000
 H                 -2.34643000   -1.47444600    1.39248000
 H                 -2.65242300    0.27197400    1.25131200

