%chk=ethyl_propiolate.chk
%nprocshared=24
%mem=12GB
# irc=(calcfc,maxpoints=10,maxcycle=900,stepsize=5) 6-311++g(d,p) m062x

Title Card Required

0 2
 O                  2.71030000   -1.34134000    0.04667800
 H                  1.81223700   -1.64622900   -0.14817200
 C                  2.48887300    0.37545400    0.24083900
 H                  3.48405000    0.73628100    0.44166700
 C                  1.29328400    0.77582200    0.11080100
 C                 -0.14431900    0.74523400   -0.10940100
 O                 -0.84341600    1.71937600   -0.07779900
 O                 -0.56158500   -0.50123500   -0.35270300
 C                 -1.98136700   -0.66724300   -0.57187100
 C                 -2.73468200   -0.68878700    0.74284300
 H                 -2.05700000   -1.61703200   -1.09793500
 H                 -2.32729500    0.13778800   -1.22080300
 H                 -3.79107500   -0.88822900    0.55323500
 H                 -2.34627000   -1.47447100    1.39245900
 H                 -2.65267300    0.27207800    1.25111600

