%chk=ethyl_propiolate.chk
%nprocshared=24
%mem=12GB
# freq 6-311++g(d,p) m062x

Title Card Required

0 2
 O                  2.71873700   -1.45673200    0.03266800
 H                  1.80092200   -1.71129200   -0.15971100
 C                  2.47894000    0.56099400    0.26404500
 H                  3.52546300    0.66982100    0.43888600
 C                  1.29238000    0.75212500    0.10752500
 C                 -0.14545100    0.74714300   -0.10936700
 O                 -0.84403500    1.71951400   -0.07793600
 O                 -0.56228800   -0.50100400   -0.35279600
 C                 -1.98117100   -0.66682100   -0.57175500
 C                 -2.73482900   -0.68872300    0.74289100
 H                 -2.05739700   -1.61652600   -1.09803300
 H                 -2.32780400    0.13811100   -1.22053400
 H                 -3.79125400   -0.88810700    0.55344900
 H                 -2.34628400   -1.47430100    1.39257500
 H                 -2.65260900    0.27208300    1.25123200

