%chk=ethyl_propiolate.chk
%nprocshared=24
%mem=12GB
# ccsd(t)/6-311++g(d,p) sp

Title Card Required

0 2
 O                  2.72384500   -1.51388400    0.02585800
 H                  1.79463200   -1.72960000   -0.16390600
 C                  2.47754700    0.63973400    0.27437800
 H                  3.52933200    0.67075000    0.43934200
 C                  1.29088700    0.75239700    0.10736800
 C                 -0.14579500    0.74737900   -0.10939900
 O                 -0.84540600    1.71885400   -0.07820800
 O                 -0.56301400   -0.50155900   -0.35305500
 C                 -1.98136900   -0.66678800   -0.57181800
 C                 -2.73505400   -0.68878300    0.74289400
 H                 -2.05869200   -1.61624200   -1.09850700
 H                 -2.32805800    0.13852400   -1.22012900
 H                 -3.79159700   -0.88781800    0.55371400
 H                 -2.34660600   -1.47455900    1.39244000
 H                 -2.65227300    0.27190200    1.25135700

