%nprocshared=24
%mem=12GB
%chk=ethyl_propiolate_ts1.chk
# ccsd(t)/6-311++g(d,p) sp

Title Card Required

0 2
O        2.77518000     -1.34611400      0.02588600
H        1.86989700     -1.63241300     -0.16962500
C        2.55032300      0.46983500      0.24134000
H        3.56870100      0.74733200      0.43622400
C        1.35723700      0.80016000      0.10367500
C       -0.08046900      0.78336700     -0.11512700
O       -0.77730900      1.75789300     -0.07862600
O       -0.49824600     -0.46160000     -0.36435000
C       -1.91827700     -0.62499700     -0.58429900
C       -2.67159200     -0.65219100      0.73030900
H       -1.99474800     -1.57208300     -1.11502100
H       -2.26336500      0.18354000     -1.22932000
H       -3.72821200     -0.84935300      0.53967600
H       -2.28412600     -1.44152800      1.37601100
H       -2.58847000      0.30602800      1.24338300

