%nprocshared=24
%mem=12GB
%chk=ethyl_propiolate_ts1.chk
# ccsd(t)/6-311++g(d,p) sp

Title Card Required

0 2
O        2.79120700     -1.48691200      0.02443900
H        1.85946600     -1.69421900     -0.16312000
C        2.54023200      0.70181300      0.26280500
H        3.59238700      0.72352700      0.42596000
C        1.35321400      0.79399200      0.09286000
C       -0.08335700      0.78409800     -0.12397900
O       -0.78477300      1.75444300     -0.09925300
O       -0.49857500     -0.46719600     -0.35938400
C       -1.91668800     -0.63591900     -0.57696000
C       -2.67028800     -0.65033900      0.73792000
H       -1.99276500     -1.58890700     -1.09742300
H       -2.26457400      0.16464400     -1.23048500
H       -3.72656400     -0.85210000      0.55014200
H       -2.28069400     -1.43127600      1.39260200
H       -2.58880400      0.31378400      1.24004000

