%chk=ethyl_propiolate.chk
%nprocshared=24
%mem=12GB
# freq 6-311++g(d,p) m062x

Title Card Required

0 2
 O                  2.70821300   -1.31546400    0.04978200
 H                  1.81553000   -1.63381700   -0.14562400
 C                  2.48969700    0.33454200    0.23552300
 H                  3.46876500    0.74199500    0.44007300
 C                  1.29520500    0.78251600    0.11198200
 C                 -0.14307000    0.74489900   -0.10925000
 O                 -0.84345400    1.71893100   -0.07785300
 O                 -0.56168700   -0.50175500   -0.35279900
 C                 -1.98133500   -0.66738000   -0.57188900
 C                 -2.73470400   -0.68880400    0.74282200
 H                 -2.05752000   -1.61717500   -1.09797500
 H                 -2.32721900    0.13774600   -1.22072600
 H                 -3.79114400   -0.88824100    0.55336300
 H                 -2.34630100   -1.47447600    1.39250500
 H                 -2.65248900    0.27210100    1.25097400

