%chk=ethyl_propiolate.chk
%nprocshared=24
%mem=12GB
# ccsd(t)/6-311++g(d,p) sp

Title Card Required

0 2
 O                  2.70929500   -1.32848100    0.04822600
 H                  1.81381700   -1.63981400   -0.14689300
 C                  2.48942600    0.35493700    0.23819400
 H                  3.47655200    0.73991300    0.44098700
 C                  1.29410700    0.77921600    0.11137700
 C                 -0.14375700    0.74504900   -0.10933700
 O                 -0.84343300    1.71917500   -0.07782300
 O                 -0.56163500   -0.50147500   -0.35274700
 C                 -1.98135700   -0.66731200   -0.57188100
 C                 -2.73469100   -0.68879500    0.74283300
 H                 -2.05723900   -1.61710500   -1.09795200
 H                 -2.32725800    0.13776400   -1.22077200
 H                 -3.79110500   -0.88823600    0.55329200
 H                 -2.34628400   -1.47447500    1.39247900
 H                 -2.65259100    0.27208900    1.25105000

