%chk=ethyl_propiolate.chk
%nprocshared=24
%mem=12GB
# ccsd(t)/6-311++g(d,p) sp

Title Card Required

0 2
 O                  2.71213600   -1.36667300    0.04360100
 H                  1.80938700   -1.66016400   -0.15076300
 C                  2.48704000    0.41675200    0.24605600
 H                  3.49780100    0.72478100    0.44228300
 C                  1.29241600    0.76895900    0.10975700
 C                 -0.14510300    0.74567900   -0.10946800
 O                 -0.84340600    1.71965500   -0.07777100
 O                 -0.56152500   -0.50088200   -0.35264100
 C                 -1.98135700   -0.66710800   -0.57184500
 C                 -2.73467800   -0.68877300    0.74285800
 H                 -2.05666700   -1.61688300   -1.09791800
 H                 -2.32737600    0.13785200   -1.22082300
 H                 -3.79104400   -0.88821000    0.55316400
 H                 -2.34625100   -1.47445600    1.39243500
 H                 -2.65277800    0.27206100    1.25121500

