%chk=ethyl_propiolate.chk
%nprocshared=24
%mem=12GB
# ccsd(t)/6-311++g(d,p) sp

Title Card Required

0 2
 O                  3.24596700    0.73866700    0.12668700
 H                  2.50749900    1.33607700   -0.07116300
 C                  2.37985100   -0.88184000    0.27518400
 H                  3.21643800   -1.51852600    0.49090500
 C                  1.15328600   -0.75004300    0.08908600
 C                 -0.08288900   -0.03612000   -0.19314500
 O                 -0.10958700    1.15061000   -0.38991400
 O                 -1.13192000   -0.84841800   -0.20775900
 C                 -2.41371900   -0.23298400   -0.46494900
 C                 -2.95886700    0.42796700    0.78518200
 H                 -3.04066600   -1.06030200   -0.79154000
 H                 -2.29816400    0.48194900   -1.28018200
 H                 -3.95864600    0.81731000    0.58414100
 H                 -3.02709900   -0.29481800    1.59942300
 H                 -2.32269800    1.25801700    1.09280200

