%chk=ethyl_propiolate.chk
%nprocshared=24
%mem=12GB
# ccsd(t)/6-311++g(d,p) sp

Title Card Required

0 2
 O                  3.25116600    0.74994200    0.12554300
 H                  2.50912200    1.34371500   -0.07222200
 C                  2.37097200   -0.90084600    0.27708700
 H                  3.22449400   -1.51295600    0.49112600
 C                  1.15488600   -0.74678600    0.08877800
 C                 -0.08322800   -0.03622500   -0.19316900
 O                 -0.10974600    1.15048800   -0.38991700
 O                 -1.13188000   -0.84848900   -0.20773800
 C                 -2.41370000   -0.23299600   -0.46494400
 C                 -2.95886000    0.42796200    0.78517800
 H                 -3.04061900   -1.06033200   -0.79152200
 H                 -2.29810700    0.48192100   -1.28017400
 H                 -3.95863700    0.81729000    0.58410800
 H                 -3.02709600   -0.29481500    1.59942300
 H                 -2.32269900    1.25801600    1.09279800

