%nprocshared=24
%mem=12GB
%chk=ethyl_propiolate_ts1.chk
# ccsd(t)/6-311++g(d,p) sp

Title Card Required

0 2
O        3.32167800      0.75068500      0.10727600
H        2.57807200      1.34137100     -0.09383700
C        2.44575900     -0.90143400      0.26875600
H        3.30089300     -1.51007500      0.48622800
C        1.22924400     -0.75161400      0.07979600
C       -0.01074700     -0.04591400     -0.20608300
O       -0.04035300      1.13954400     -0.40983300
O       -1.05731100     -0.86094100     -0.21563200
C       -2.34075900     -0.25027300     -0.47620000
C       -2.88737100      0.41665700      0.77011000
H       -2.96561300     -1.08113200     -0.79775200
H       -2.22716200      0.46010900     -1.29566400
H       -3.88818500      0.80222100      0.56695400
H       -2.95359000     -0.30146900      1.58862500
H       -2.25328500      1.25014600      1.07268600

