%chk=ethyl_propiolate.chk
%nprocshared=24
%mem=12GB
# freq 6-311++g(d,p) m062x

Title Card Required

0 2
 O                  3.27278243    0.79638132    0.12085517
 H                  2.51543643    1.37336732   -0.07636183
 C                  2.33619143   -0.97665668    0.28474417
 H                  3.24904843   -1.48912668    0.49076117
 C                  1.15942843   -0.73724368    0.08791317
 C                 -0.08353357   -0.03633668   -0.19318383
 O                 -0.11067257    1.15062432   -0.39007783
 O                 -1.13180457   -0.84856068   -0.20769783
 C                 -2.41345157   -0.23307268   -0.46490083
 C                 -2.95886357    0.42795732    0.78514317
 H                 -3.04045757   -1.06040368   -0.79140483
 H                 -2.29800457    0.48191532   -1.28008983
 H                 -3.95867257    0.81723232    0.58403017
 H                 -3.02701157   -0.29477868    1.59943217
 H                 -2.32264757    1.25799032    1.09267617

