%nprocshared=24
%mem=12GB
%chk=ethyl_propiolate_ts1.chk
# freq 6-311++g(d,p) m062x

Title Card Required

0 2
O        3.35753700      0.80668200      0.10812100
H        2.59128800      1.37370900     -0.08681000
C        2.39034800     -1.02749600      0.27264100
H        3.32616700     -1.49734500      0.47314200
C        1.23125500     -0.74543100      0.07234200
C       -0.01140600     -0.04458000     -0.20646400
O       -0.03752900      1.14319800     -0.39987300
O       -1.06090200     -0.85534600     -0.22356100
C       -2.34150100     -0.23738100     -0.47899900
C       -2.88629300      0.42057000      0.77298400
H       -2.96971600     -1.06277200     -0.80814200
H       -2.22509600      0.48007700     -1.29189300
H       -3.88554700      0.81187500      0.57301000
H       -2.95548600     -0.30460000      1.58502800
H       -2.24888000      1.24870100      1.08315100

