%nprocshared=24
%mem=12GB
%chk=ethyl_propiolate_ts1.chk
# ccsd(t)/6-311++g(d,p) sp

Title Card Required

0 2
O        3.31065400      0.73235700      0.10726100
H        2.57368200      1.32915900     -0.09578800
C        2.46441400     -0.85960100      0.26701300
H        3.28642400     -1.51485900      0.48984500
C        1.22719900     -0.75650700      0.08262300
C       -0.00976900     -0.04612000     -0.20589900
O       -0.04120800      1.13878200     -0.41320700
O       -1.05628300     -0.86239500     -0.21306600
C       -2.34037100     -0.25408500     -0.47528800
C       -2.88763400      0.41588700      0.76911100
H       -2.96439300     -1.08654700     -0.79436200
H       -2.22775300      0.45405500     -1.29685200
H       -3.88890500      0.79975600      0.56497400
H       -2.95295800     -0.29991500      1.58974000
H       -2.25443500      1.25096300      1.06917500

