%chk=ethyl_propiolate.chk
%nprocshared=24
%mem=12GB
# freq 6-311++g(d,p) m062x

Title Card Required

0 2
 O                  3.32144900    0.90035300    0.11045100
 H                  2.51798300    1.41572200   -0.08357700
 C                  2.27550900   -1.12196600    0.30023600
 H                  3.24310200   -1.52156600    0.49485300
 C                  1.15710200   -0.73726900    0.08768400
 C                 -0.08314100   -0.03500900   -0.19336200
 O                 -0.11199200    1.15240200   -0.39055900
 O                 -1.13197100   -0.84727300   -0.20796800
 C                 -2.41325500   -0.23262500   -0.46497900
 C                 -2.95903800    0.42792200    0.78522800
 H                 -3.04013700   -1.06004600   -0.79165700
 H                 -2.29847700    0.48284900   -1.27988100
 H                 -3.95894100    0.81717800    0.58446300
 H                 -3.02680600   -0.29511100    1.59929900
 H                 -2.32272500    1.25782300    1.09292100

