%nprocshared=24
%mem=12GB
%chk=ethyl_propiolate_ts1.chk
# freq 6-311++g(d,p) m062x

Title Card Required

0 2
O        3.37099300      0.82700500      0.10869700
H        2.59364100      1.38041900     -0.08375400
C        2.37338900     -1.06885600      0.27330500
H        3.32463400     -1.50669400      0.46913300
C        1.22968100     -0.74665800      0.06989500
C       -0.01138500     -0.04357900     -0.20665300
O       -0.03640900      1.14499200     -0.39633900
O       -1.06212900     -0.85290500     -0.22645400
C       -2.34169300     -0.23247400     -0.47998500
C       -2.88579300      0.42216100      0.77406400
H       -2.97106600     -1.05589900     -0.81187600
H       -2.22432700      0.48753700     -1.29049100
H       -3.88447400      0.81555200      0.57529000
H       -2.95605200     -0.30555900      1.58373400
H       -2.24718800      1.24833800      1.08697300

