%nprocshared=24
%mem=12GB
%chk=ethyl_propiolate_ts1.chk
# irc=(calcfc,maxpoints=10,maxcycle=900,stepsize=5) 6-311++g(d,p) m062x

Title Card Required

0 2
 O                 -1.35014800    1.70957800    0.09906100
 H                 -1.97857400    1.82014900    0.82973100
 C                 -2.72637600   -0.46716000   -0.44755400
 H                 -3.75268000   -0.54117000   -0.72359900
 C                 -1.56502400   -0.29291700   -0.14673000
 C                 -0.16468100   -0.54132000    0.22517200
 O                  0.16720300   -0.89158800    1.32169400
 O                  0.63804400   -0.33792800   -0.81028200
 C                  2.05239500   -0.42422500   -0.53926300
 C                  2.54112600    0.84376800    0.13197200
 H                  2.50164500   -0.56298900   -1.52081400
 H                  2.23928400   -1.30519400    0.07575800
 H                  3.62301900    0.79304800    0.26921200
 H                  2.30551900    1.71259100   -0.48378800
 H                  2.07328200    0.96471900    1.10935500

