%chk=ethyl_propiolate.chk 
%nprocshared=24 
%mem=12GB 
# ccsd(t)/6-311++g(d,p) sp 

Title Card Required

0 2
 C                  2.46865300    1.29471900   -0.67240700
 H                  3.09742000    2.09285500   -0.99308900
 C                  1.76767700    0.39149900   -0.31148900
 C                  0.98723700   -0.75523300    0.14964900
 O                  1.49078000   -1.78395300    0.47472700
 O                 -0.35105500   -0.58961000    0.19409300
 C                 -0.95488600    0.63396700   -0.18341400
 C                 -1.10735400    1.58793400    0.96696400
 H                 -0.51516800    1.04315500   -1.09346600
 H                 -2.19508400    0.19299400   -0.55024500
 H                 -1.62293900    1.10177700    1.79606200
 H                 -0.11917100    1.91643600    1.30889600
 H                 -1.67745900    2.46513400    0.65935400
 O                 -3.14580200   -0.46467100   -0.67741900
 H                 -2.77163700   -1.30876900   -0.38750700

