%chk=ethyl_propiolate.chk 
%nprocshared=24 
%mem=12GB 
# ccsd(t)/6-311++g(d,p) sp 

Title Card Required

0 2
 C                  2.46866100    1.29472000   -0.67240900
 H                  3.09742800    2.09284500   -0.99307400
 C                  1.76769800    0.39150000   -0.31148600
 C                  0.98706900   -0.75516400    0.14971400
 O                  1.49081500   -1.78396800    0.47473100
 O                 -0.35080300   -0.58985300    0.19413500
 C                 -0.95620100    0.63381900   -0.18401300
 C                 -1.10700000    1.58811100    0.96712700
 H                 -0.51204800    1.04445600   -1.09147700
 H                 -2.17070100    0.20723400   -0.54619600
 H                 -1.62299900    1.10177200    1.79582200
 H                 -0.11929700    1.91682500    1.30925400
 H                 -1.67742300    2.46511200    0.65938700
 O                 -3.14708000   -0.46548700   -0.67760800
 H                 -2.77014000   -1.30881600   -0.38702500

