%chk=ethyl_propiolate.chk 
%nprocshared=24 
%mem=12GB 
# ccsd(t)/6-311++g(d,p) sp 

Title Card Required

0 2
 C                  2.46869800    1.29471200   -0.67241100
 H                  3.09746700    2.09279500   -0.99302200
 C                  1.76776900    0.39150300   -0.31147100
 C                  0.98649600   -0.75495900    0.14994200
 O                  1.49094000   -1.78402800    0.47474300
 O                 -0.35004300   -0.59062200    0.19423600
 C                 -0.95947100    0.63386200   -0.18575900
 C                 -1.10579000    1.58870200    0.96769100
 H                 -0.50149800    1.04875900   -1.08496400
 H                 -2.09864700    0.25122800   -0.53545100
 H                 -1.62322900    1.10177000    1.79508700
 H                 -0.11980100    1.91828500    1.31080400
 H                 -1.67726700    2.46507400    0.65952900
 O                 -3.15147900   -0.46837400   -0.67825000
 H                 -2.76629500   -1.30935400   -0.38566600

