%chk=ethyl_propiolate.chk 
%nprocshared=24 
%mem=12GB 
# ccsd(t)/6-311++g(d,p) sp 

Title Card Required

0 2
 C                  2.46948900    1.29418800   -0.67207600
 H                  3.09818700    2.09214100   -0.99259200
 C                  1.76890100    0.39095900   -0.31044300
 C                  0.98331400   -0.75510000    0.15180700
 O                  1.49182700   -1.78439800    0.47498700
 O                 -0.34929100   -0.59232800    0.19202100
 C                 -0.94150600    0.65491900   -0.19196000
 C                 -1.09507000    1.59452900    0.97579500
 H                 -0.39814700    1.08984200   -1.03210400
 H                 -1.93927400    0.39550100   -0.58291700
 H                 -1.62635100    1.09976800    1.79004000
 H                 -0.12073700    1.93038800    1.33789200
 H                 -1.67060400    2.46879400    0.66627500
 O                 -3.19105100   -0.49771600   -0.68274700
 H                 -2.75311800   -1.31225900   -0.37810300

