%chk=ethyl_propiolate.chk 
%nprocshared=24 
%mem=12GB 
# ccsd(t)/6-311++g(d,p) sp 

Title Card Required

0 2
 C                  2.46885300    1.29464700   -0.67240200
 H                  3.09753000    2.09271400   -0.99287600
 C                  1.76799000    0.39146300   -0.31133100
 C                  0.98502200   -0.75471000    0.15065500
 O                  1.49136700   -1.78417900    0.47477900
 O                 -0.34884500   -0.59233400    0.19410700
 C                 -0.95845000    0.63876400   -0.18854300
 C                 -1.10202800    1.59057600    0.96983500
 H                 -0.46695200    1.06244300   -1.06613300
 H                 -2.00169800    0.32669100   -0.53718400
 H                 -1.62401200    1.10166900    1.79341600
 H                 -0.12081500    1.92349700    1.31832800
 H                 -1.67618700    2.46540500    0.66069800
 O                 -3.16440200   -0.47750100   -0.67999300
 H                 -2.76059000   -1.31105400   -0.38323900

