%chk=ethyl_propiolate.chk 
%nprocshared=24 
%mem=12GB 
# ccsd(t)/6-311++g(d,p) sp 

Title Card Required

0 2
 C                  2.46864500    1.29471800   -0.67240400
 H                  3.09741200    2.09286200   -0.99310200
 C                  1.76765700    0.39149800   -0.31149100
 C                  0.98740100   -0.75530500    0.14958500
 O                  1.49074700   -1.78394000    0.47472400
 O                 -0.35131300   -0.58936400    0.19404700
 C                 -0.95344000    0.63418300   -0.18278900
 C                 -1.10769900    1.58775900    0.96680300
 H                 -0.51824600    1.04185900   -1.09544000
 H                 -2.21959000    0.17902100   -0.55445900
 H                 -1.62288600    1.10178200    1.79630300
 H                 -0.11906900    1.91607600    1.30859100
 H                 -1.67749300    2.46515800    0.65932300
 O                 -3.14460500   -0.46392000   -0.67724200
 H                 -2.77328100   -1.30880400   -0.38801500

