%chk=ethyl_propiolate.chk 
%nprocshared=24 
%mem=12GB 
# ccsd(t)/6-311++g(d,p) sp 

Title Card Required

0 2
 C                  2.46874400    1.29467900   -0.67240800
 H                  3.09764200    2.09259800   -0.99298600
 C                  1.76783100    0.39149000   -0.31143900
 C                  0.98596800   -0.75482300    0.15017200
 O                  1.49106200   -1.78409000    0.47476000
 O                 -0.34948900   -0.59128500    0.19427100
 C                 -0.96055300    0.63479100   -0.18692000
 C                 -1.10460100    1.58928400    0.96825500
 H                 -0.49103000    1.05291300   -1.07893900
 H                 -2.05390300    0.28221600   -0.53155400
 H                 -1.62351100    1.10188200    1.79450100
 H                 -0.12022000    1.91990500    1.31278900
 H                 -1.67695200    2.46516500    0.65969700
 O                 -3.15550000   -0.47111100   -0.67883800
 H                 -2.76402700   -1.30993000   -0.38465100

