%chk=ethyl_propiolate.chk
%nprocshared=24
%mem=12GB
# irc=(calcfc,maxpoints=10,maxcycle=900,stepsize=5) 6-311++g(d,p) m062x

Title Card Required

0 2
 O                  3.26166600    0.77268500    0.12323500
 H                  2.51267400    1.35928200   -0.07435500
 C                  2.35316500   -0.93881200    0.28087200
 H                  3.23896400   -1.49988100    0.49104100
 C                  1.15786100   -0.74112900    0.08828900
 C                 -0.08356600   -0.03637400   -0.19318500
 O                 -0.11014000    1.15041600   -0.38996600
 O                 -1.13182600   -0.84857500   -0.20770800
 C                 -2.41360400   -0.23303000   -0.46492600
 C                 -2.95885600    0.42795700    0.78516500
 H                 -3.04054100   -1.06036500   -0.79148200
 H                 -2.29803100    0.48191400   -1.28013000
 H                 -3.95864400    0.81726100    0.58407100
 H                 -3.02706500   -0.29481200    1.59942000
 H                 -2.32267500    1.25799500    1.09277000

