%chk=ethyl_propiolate.chk 
%nprocshared=24 
%mem=12GB 
# ccsd(t)/6-311++g(d,p) sp 

Title Card Required

0 2
 C                 -1.45996799   -1.35617604   -0.35646973
 H                 -1.96740599   -2.28168804   -0.51462673
 C                 -0.59463599   -0.50059004   -0.29781773
 C                  0.03937801    0.79785696   -0.05949773
 O                 -0.63114199    1.73463196    0.27212227
 O                  1.35309501    0.89481396   -0.23446573
 C                  2.13031501   -0.28124504   -0.52603073
 C                  2.46305801   -1.04012204    0.74268827
 H                  1.59228201   -0.90463504   -1.24470273
 H                  3.02636501    0.10596496   -1.00797173
 H                  2.97858001   -0.38803104    1.44877927
 H                  1.55878201   -1.42710304    1.21627927
 H                  3.11379301   -1.88463504    0.50775927
 O                 -3.12953799   -0.44526604    0.28359127
 H                 -2.78983099    0.45714796    0.41526127

