%chk=ethyl_propiolate.chk 
%nprocshared=24 
%mem=12GB 
# ccsd(t)/6-311++g(d,p) sp 

Title Card Required

0 2
 C                 -1.32038700   -1.44966200   -0.41465800
 H                 -1.93299800   -2.31286200   -0.53210300
 C                 -0.59321400   -0.49969800   -0.29772300
 C                  0.03750400    0.79817700   -0.05917000
 O                 -0.63147700    1.73650300    0.27299900
 O                  1.35165600    0.89485300   -0.23441300
 C                  2.13124300   -0.28064600   -0.52589700
 C                  2.46291300   -1.03971200    0.74303500
 H                  1.59573800   -0.90382800   -1.24551000
 H                  3.02791000    0.10913600   -1.00456400
 H                  2.97782500   -0.38784700    1.44983900
 H                  1.55844300   -1.42764500    1.21507100
 H                  3.11422000   -1.88384600    0.50816600
 O                 -3.23325000   -0.37960700    0.32590800
 H                 -2.81971300    0.49801200    0.42537300

