%chk=ethyl_propiolate.chk 
%nprocshared=24 
%mem=12GB 
# ccsd(t)/6-311++g(d,p) sp 

Title Card Required

0 2
 C                 -1.62777500   -1.24987800   -0.28794900
 H                 -1.88566600   -2.27107800   -0.52902400
 C                 -0.56958900   -0.51744000   -0.30886200
 C                  0.03656000    0.79497400   -0.05940300
 O                 -0.63336100    1.73396800    0.27201600
 O                  1.35324300    0.89540200   -0.23411900
 C                  2.13082600   -0.28013600   -0.52566700
 C                  2.46315700   -1.04026900    0.74265600
 H                  1.59552000   -0.90384200   -1.24652700
 H                  3.02754200    0.10700600   -1.00674200
 H                  2.97809700   -0.38808400    1.44908600
 H                  1.55885600   -1.42666600    1.21692600
 H                  3.11423000   -1.88472300    0.50829000
 O                 -3.02706200   -0.50845500    0.24213900
 H                 -2.74309300    0.40618400    0.39328700

