%chk=ethyl_propiolate.chk 
%nprocshared=24 
%mem=12GB 
# ccsd(t)/6-311++g(d,p) sp 

Title Card Required

0 2
 C                 -1.36439700   -1.41975100   -0.39610100
 H                 -1.96581400   -2.29031500   -0.51792700
 C                 -0.59658100   -0.49769000   -0.29645300
 C                  0.03833900    0.79838900   -0.05925200
 O                 -0.63078400    1.73657400    0.27273700
 O                  1.35232500    0.89469800   -0.23452100
 C                  2.13055000   -0.28130400   -0.52604300
 C                  2.46289500   -1.03993400    0.74294700
 H                  1.59336700   -0.90468400   -1.24453900
 H                  3.02692000    0.10706300   -1.00643900
 H                  2.97823100   -0.38788900    1.44926800
 H                  1.55845000   -1.42731800    1.21562400
 H                  3.11382200   -1.88436400    0.50813900
 O                 -3.19755000   -0.40329800    0.31097300
 H                 -2.80966700    0.48401200    0.42295400

