%nprocshared=4
%mem=150MW
%chk=ethyl_propiolate.chk
# opt=(calcfc,tight,noeigentest) freq 6-311++g(d,p) m062x

Title Card Required

0 2
 C                  2.35690400   -0.41532200    0.00000400
 H                  3.44279900   -0.44752900    0.00001100
 C                  1.68759100    0.73489900   -0.00000400
 C                  0.27636900    1.07196800   -0.00000700
 O                 -0.20723600    2.17636200   -0.00001600
 O                 -0.47865400   -0.06798900    0.00000400
 C                 -1.90691500    0.12720500    0.00000300
 C                 -2.54804500   -1.24256500    0.00000700
 H                 -2.17488300    0.71074900    0.88488300
 H                 -2.17488200    0.71074400   -0.88488000
 H                 -2.25737100   -1.80853800   -0.88888600
 H                 -2.25737100   -1.80853400    0.88890200
 H                 -3.63612100   -1.13972800    0.00000600
 O                  1.81310900   -1.64755900    0.00000400
 H                  0.84465000   -1.56078500    0.00001100

