%nprocshared=4
%mem=150MW
%chk=ethyl_propiolate.chk
# ccsd(t)/6-311++g(d,p) sp

Title Card Required

0 2
 C                 -2.85281800   -0.24771900   -0.00000700
 H                 -3.18414700   -1.27108800   -0.00001400
 C                 -1.67004300    0.33118500    0.00000000
 C                 -0.43870400   -0.53307900   -0.00000300
 O                 -0.42724100   -1.73085100   -0.00000800
 O                  0.66746700    0.23099800    0.00000200
 C                  1.92439000   -0.47516900    0.00000100
 C                  3.02638800    0.55730100    0.00000400
 H                  1.95468600   -1.11548700    0.88340600
 H                  1.95468600   -1.11548200   -0.88340800
 H                  2.96595600    1.18928300   -0.88718400
 H                  2.96595600    1.18927700    0.88719500
 H                  3.99578600    0.05620200    0.00000200
 O                 -1.49515300    1.67649500    0.00000900
 H                 -0.54878800    1.85904500    0.00001100

