%nprocshared=4
%mem=150MW
%chk=ethyl_propiolate.chk
# opt=(calcfc,tight,noeigentest) freq 6-311++g(d,p) m062x

Title Card Required

0 2
 C                  2.53829000   -0.74815100    0.00000000
 H                  3.28017600   -1.54198500   -0.00000500
 C                  1.22559600   -0.99370300   -0.00000300
 C                  0.16757000   -0.00749600   -0.00000400
 O                  0.41731400    1.19436900    0.00000000
 O                 -1.06590500   -0.50231000   -0.00000800
 C                 -2.13482600    0.46282700   -0.00001200
 C                 -3.43262800   -0.31379600    0.00001500
 H                 -2.03113400    1.09730500    0.88504200
 H                 -2.03115400    1.09727400   -0.88509100
 H                 -3.50201000   -0.94778300   -0.88706600
 H                 -3.50199400   -0.94774600    0.88712400
 H                 -4.27784700    0.37907400    0.00000800
 O                  3.08798700    0.47460300    0.00000900
 H                  2.36479200    1.13249000    0.00000800

