%nprocshared=4
%mem=150MW
%chk=ethyl_propiolate.chk
# opt=(calcfc,tight,noeigentest) freq 6-311++g(d,p) m062x

Title Card Required

0 2
 C                  2.85277900   -0.24774500    0.00000600
 H                  3.18426400   -1.27106700    0.00001300
 C                  1.67001000    0.33117300    0.00000000
 C                  0.43867100   -0.53309200    0.00000300
 O                  0.42729700   -1.73085800    0.00000900
 O                 -0.66752900    0.23090300   -0.00000200
 C                 -1.92452900   -0.47516200   -0.00000100
 C                 -3.02642200    0.55740700   -0.00000400
 H                 -1.95483600   -1.11551600   -0.88336800
 H                 -1.95483600   -1.11551000    0.88337100
 H                 -2.96595500    1.18932500    0.88723000
 H                 -2.96595400    1.18932000   -0.88724200
 H                 -3.99588100    0.05640300   -0.00000300
 O                  1.49536400    1.67647600   -0.00000800
 H                  0.54908000    1.85940100   -0.00001100

