%chk=ethyl_propiolate.chk
%nprocshared=24
%mem=12GB
# ccsd(t)/6-311++g(d,p) sp

Title Card Required

0 2
 O                  2.34468600    1.68854600   -0.32759600
 H                  1.52693700    1.77290500    0.19830800
 C                 -3.31749700    0.18928700   -0.51624100
 H                 -4.33343300    0.26159700   -0.82765000
 C                 -2.17532400    0.10741200   -0.16509300
 C                 -0.79033600    0.05998100    0.27295600
 O                 -0.22867500    0.98701700    0.79817500
 O                 -0.24597400   -1.12515000    0.02729700
 C                  1.12222200   -1.32179400    0.44358100
 C                  2.09983800   -0.83073200   -0.59504400
 H                  1.19913400   -2.40119700    0.56890200
 H                  1.27321100   -0.83570800    1.40857700
 H                  3.10472900   -1.19830000   -0.38439900
 H                  1.79896300   -1.11217100   -1.60472000
 H                  2.19919200    0.28748800   -0.59499200

