%chk=ethyl_propiolate.chk
%nprocshared=24
%mem=12GB
# ccsd(t)/6-311++g(d,p) sp

Title Card Required

0 2
 O                  2.34156600    1.65631300   -0.33339600
 H                  1.53993100    1.78655500    0.19262400
 C                 -3.31749200    0.18922300   -0.51625900
 H                 -4.33349800    0.26198500   -0.82751000
 C                 -2.17532200    0.10709000   -0.16533300
 C                 -0.79130100    0.06211100    0.27357600
 O                 -0.22961000    0.98590900    0.79877900
 O                 -0.24442700   -1.12660400    0.02701500
 C                  1.12142000   -1.31562200    0.44198100
 C                  2.09764700   -0.83220000   -0.59082400
 H                  1.20970800   -2.39867800    0.56337100
 H                  1.27574300   -0.83626000    1.41086100
 H                  3.12069600   -1.13716400   -0.38007300
 H                  1.79565500   -1.03145300   -1.61709700
 H                  2.24775500    0.60728800   -0.52645100

