%nprocshared=24
%mem=12GB
%chk=ethyl_propiolate_ts1.chk
# freq 6-311++g(d,p) m062x

Title Card Required

0 2
O        2.28799800      1.69208500     -0.32115500
H        1.47707900      1.79976200      0.20560900
C       -3.37291600      0.21468900     -0.50630200
H       -4.38887700      0.28762100     -0.81755700
C       -2.23075600      0.13226100     -0.15536600
C       -0.84635600      0.08580500      0.28317100
O       -0.28456000      1.01061100      0.80888900
O       -0.30065500     -1.10140300      0.03646800
C        1.06614400     -1.29385700      0.45181400
C        2.04370300     -0.79823400     -0.58214700
H        1.15025100     -2.37483600      0.57282100
H        1.21880500     -0.81257100      1.41925700
H        3.05706100     -1.14090200     -0.37408400
H        1.74237000     -1.03657100     -1.60185600
H        2.16212500      0.42317100     -0.54481800

