%chk=ethyl_propiolate.chk
%nprocshared=24
%mem=12GB
# irc=(calcfc,maxpoints=10,maxcycle=900,stepsize=5) 6-311++g(d,p) m062x

Title Card Required

0 2
 O                  2.34174600    1.65733200   -0.33326400
 H                  1.53883800    1.78448800    0.19284600
 C                 -3.31749400    0.18922500   -0.51625900
 H                 -4.33349600    0.26196900   -0.82751700
 C                 -2.17532400    0.10710200   -0.16532500
 C                 -0.79125800    0.06201700    0.27354900
 O                 -0.22958600    0.98595500    0.79877000
 O                 -0.24448500   -1.12653700    0.02702400
 C                  1.12145900   -1.31589100    0.44205500
 C                  2.09791300   -0.83038300   -0.59085500
 H                  1.20939300   -2.39872600    0.56329700
 H                  1.27556700   -0.83631100    1.41075300
 H                  3.11968800   -1.14082500   -0.38054200
 H                  1.79600500   -1.03507000   -1.61637700
 H                  2.24357100    0.58127700   -0.52911900

