%nprocshared=24
%mem=12GB
%chk=ethyl_propiolate_ts1.chk
# freq 6-311++g(d,p) m062x

Title Card Required

0 2
O        2.28867900      1.68039400     -0.32033700
H        1.48358400      1.80189400      0.20627200
C       -3.37294500      0.21788800     -0.50581900
H       -4.38887100      0.29255800     -0.81684200
C       -2.23084800      0.13357700     -0.15515000
C       -0.84671200      0.08557600      0.28341900
O       -0.28376300      1.00805200      0.81034300
O       -0.30177900     -1.10292500      0.03468200
C        1.06415400     -1.29558000      0.44932800
C        2.04153400     -0.80593700     -0.58301400
H        1.14982500     -2.37826300      0.56839500
H        1.21861200     -0.81753200      1.41852300
H        3.06052300     -1.12784300     -0.37416000
H        1.73940600     -1.01815100     -1.60739900
H        2.18073000      0.55002300     -0.52487600

