%chk=ethyl_propiolate.chk
%nprocshared=24
%mem=12GB
# irc=(calcfc,maxpoints=10,maxcycle=900,stepsize=5) 6-311++g(d,p) m062x

Title Card Required

0 2
 O                  2.34249800    1.66263000   -0.33247000
 H                  1.53488000    1.77852200    0.19400400
 C                 -3.31750300    0.18923400   -0.51625800
 H                 -4.33348800    0.26190400   -0.82754100
 C                 -2.17533200    0.10714900   -0.16529600
 C                 -0.79109000    0.06160900    0.27343300
 O                 -0.22947400    0.98614800    0.79872700
 O                 -0.24473300   -1.12625600    0.02706000
 C                  1.12164600   -1.31699300    0.44233000
 C                  2.09877700   -0.82502200   -0.59113800
 H                  1.20782400   -2.39879200    0.56344200
 H                  1.27493200   -0.83635100    1.41023600
 H                  3.11585000   -1.15410200   -0.38220000
 H                  1.79723600   -1.04900400   -1.61354100
 H                  2.22823900    0.47646600   -0.54242400

