%nprocshared=24
%mem=12GB
%chk=ethyl_propiolate_ts1.chk
# freq 6-31+g m062x

Title Card Required

0 2
O        2.34230600      1.66114100     -0.33270400
H        1.53582700      1.77976300      0.19368300
C       -3.31750100      0.18923200     -0.51625800
H       -4.33349000      0.26192200     -0.82753400
C       -2.17532900      0.10713700     -0.16530400
C       -0.79113300      0.06171900      0.27346500
O       -0.22950600      0.98609600      0.79874000
O       -0.24466600     -1.12633000      0.02705000
C        1.12159300     -1.31670300      0.44226100
C        2.09858000     -0.82613700     -0.59104000
H        1.20826600     -2.39877900      0.56335100
H        1.27509200     -0.83635700      1.41037400
H        3.11682000     -1.15079300     -0.38180200
H        1.79694500     -1.04540600     -1.61426900
H        2.23194800      0.50263600     -0.53878800
