%nprocshared=24
%mem=12GB
%chk=ethyl_propiolate_ts1.chk
# ccsd(t)/6-311++g(d,p) sp

Title Card Required

0 2
O        2.28834700      1.71554500     -0.32189700
H        1.47047700      1.80071400      0.20368800
C       -3.37271800      0.21164900     -0.50716100
H       -4.38867100      0.28238200     -0.81887700
C       -2.23052500      0.13154900     -0.15566700
C       -0.84555300      0.08630400      0.28266200
O       -0.28462900      1.01515300      0.80546000
O       -0.30029700     -1.09908300      0.04023900
C        1.06799400     -1.29361200      0.45720100
C        2.04537000     -0.80461800     -0.58262500
H        1.14568000     -2.37261900      0.58542100
H        1.21851800     -0.80483300      1.42090900
H        3.05050500     -1.17088600     -0.37088400
H        1.74481600     -1.08898000     -1.59157800
H        2.14390700      0.31367000     -0.58555600

