%chk=ethyl_propiolate.chk
%nprocshared=24
%mem=12GB
# ccsd(t)/6-311++g(d,p) sp

Title Card Required

0 2
 O                  2.34409400    1.67982700   -0.32936100
 H                  1.52844300    1.77331800    0.19709300
 C                 -3.31751400    0.18926600   -0.51625300
 H                 -4.33345900    0.26169100   -0.82761700
 C                 -2.17534200    0.10731400   -0.16517500
 C                 -0.79057700    0.06035000    0.27307000
 O                 -0.22897400    0.98676800    0.79844200
 O                 -0.24559300   -1.12542300    0.02721100
 C                  1.12220600   -1.32022900    0.44309200
 C                  2.09981700   -0.82505900   -0.59331800
 H                  1.20204100   -2.39998800    0.56644200
 H                  1.27341300   -0.83604900    1.40909300
 H                  3.10732700   -1.18624700   -0.38464100
 H                  1.79886400   -1.09066100   -1.60704800
 H                  2.20413500    0.31131000   -0.57897000

