%chk=ethyl_propiolate.chk
%nprocshared=24
%mem=12GB
# freq 6-311++g(d,p) m062x

Title Card Required

0 2
 O                  2.34525900    1.69757600   -0.32567800
 H                  1.52573800    1.77283500    0.19962200
 C                 -3.31746500    0.18930900   -0.51622200
 H                 -4.33339400    0.26151100   -0.82767700
 C                 -2.17529100    0.10752300   -0.16500000
 C                 -0.79011300    0.05975400    0.27286600
 O                 -0.22834400    0.98724600    0.79784400
 O                 -0.24631800   -1.12497400    0.02739700
 C                  1.12207600   -1.32336200    0.44414800
 C                  2.09976600   -0.83751100   -0.59708800
 H                  1.19625400   -2.40246900    0.57189700
 H                  1.27334500   -0.83508300    1.40792300
 H                  3.10290600   -1.20830500   -0.38348000
 H                  1.79913900   -1.13407700   -1.60264000
 H                  2.19493800    0.27042000   -0.61114200

