%chk=ethyl_propiolate.chk
%nprocshared=24
%mem=12GB
# freq 6-311++g(d,p) m062x

Title Card Required

0 2
 O                  2.34139100    1.65549300   -0.33348500
 H                  1.54111400    1.78906700    0.19244600
 C                 -3.31749000    0.18922000   -0.51625900
 H                 -4.33349900    0.26200200   -0.82750300
 C                 -2.17532100    0.10707700   -0.16534000
 C                 -0.79134900    0.06220600    0.27360200
 O                 -0.22963300    0.98586100    0.79879100
 O                 -0.24436700   -1.12667500    0.02700500
 C                  1.12138300   -1.31534300    0.44189900
 C                  2.09733600   -0.83436900   -0.59081000
 H                  1.20998600   -2.39859500    0.56352700
 H                  1.27594700   -0.83617200    1.41095000
 H                  3.12180300   -1.13302200   -0.37954800
 H                  1.79526300   -1.02746300   -1.61787600
 H                  2.25225000    0.63290500   -0.52429700

