%nprocshared=24
%mem=12GB
%chk=ethyl_propiolate_ts1.chk
# freq 6-311++g(d,p) m062x

Title Card Required

0 2
O        2.28922500      1.67458100     -0.31986000
H        1.48794800      1.80517300      0.20661800
C       -3.37295000      0.21992800     -0.50557100
H       -4.38884800      0.29563200     -0.81647400
C       -2.23090200      0.13448500     -0.15503700
C       -0.84691200      0.08545900      0.28353600
O       -0.28318900      1.00672400      0.81100700
O       -0.30259000     -1.10377500      0.03385300
C        1.06291800     -1.29673900      0.44811800
C        2.04000600     -0.81274500     -0.58360400
H        1.14893400     -2.38028600      0.56672800
H        1.21840200     -0.82018100      1.41819500
H        3.06244000     -1.12040900     -0.37379500
H        1.73743600     -1.00873800     -1.61033500
H        2.19316700      0.62625300     -0.51557900

