%chk=ethyl_propiolate.chk 
%nprocshared=24 
%mem=12GB 
# ccsd(t)/6-311++g(d,p) sp 

Title Card Required

0 2
 C                 -2.53248800    0.22076200   -1.13715200
 H                 -3.43373400    0.50049600   -1.63067900
 C                 -1.51273700   -0.06173700   -0.56480800
 C                 -0.25669800   -0.60154300   -0.04416100
 O                 -0.18092700   -1.65962700    0.51388200
 O                  0.76087800    0.20562600   -0.31582800
 C                  2.05213400   -0.25441400    0.12789800
 C                  3.05824700    0.80256200   -0.26231500
 H                  2.01059300   -0.40824600    1.20799200
 H                  2.25668900   -1.21758100   -0.34455400
 H                  3.06641700    0.94617800   -1.34341700
 H                  2.81784000    1.75355000    0.21413400
 H                  4.05587600    0.49516900    0.05566900
 O                 -1.70789800    1.19766000    1.23042500
 H                 -2.49859900    0.74107900    1.56121800

