%chk=ethyl_propiolate.chk 
%nprocshared=24 
%mem=12GB 
# ccsd(t)/6-311++g(d,p) sp 

Title Card Required

0 2
 C                 -2.51059400    0.19996100   -1.14649300
 H                 -3.40477000    0.46924500   -1.66300600
 C                 -1.55458600    0.10419200   -0.32730200
 C                 -0.26036800   -0.58866700   -0.02614600
 O                 -0.18640200   -1.66189300    0.49908800
 O                  0.76044800    0.20366900   -0.32013800
 C                  2.05322500   -0.25628000    0.12392900
 C                  3.05827400    0.80258700   -0.26263500
 H                  2.00664700   -0.40948700    1.20402800
 H                  2.25973700   -1.21877600   -0.34825000
 H                  3.06842900    0.94730500   -1.34359600
 H                  2.81566800    1.75250400    0.21471500
 H                  4.05566000    0.49574400    0.05662500
 O                 -1.68836400    1.08825100    1.07456900
 H                 -2.47443400    0.71805500    1.49624500

