%chk=ethyl_propiolate.chk 
%nprocshared=24 
%mem=12GB 
# ccsd(t)/6-311++g(d,p) sp 

Title Card Required

0 2
 C                  2.17812900   -0.40965100   -0.06183700
 H                  3.53780900   -0.92482400   -0.15781900
 C                  1.07180000    0.06939000   -0.01696100
 C                 -0.28119100    0.61392200   -0.00423100
 O                 -0.51707900    1.78930500    0.01217800
 O                 -1.19283600   -0.35425100   -0.01015700
 C                 -2.56623100    0.08427000    0.00854300
 C                 -3.42715300   -1.15719700   -0.00406700
 H                 -2.72347300    0.68922100    0.90387700
 H                 -2.73904700    0.71842200   -0.86340000
 H                 -3.23703600   -1.74637300   -0.90191200
 H                 -3.22002500   -1.77601800    0.86973400
 H                 -4.48092500   -0.87388100    0.01059500
 O                  4.49974700   -0.60389900    0.08925100
 H                  4.59997500    0.23913300   -0.37432200

