%chk=ethyl_propiolate.chk 
%nprocshared=24 
%mem=12GB 
# ccsd(t)/6-311++g(d,p) sp 

Title Card Required

0 2
 C                  2.17176300   -0.40730000   -0.05934300
 H                  3.66958900   -1.02074800   -0.23833100
 C                  1.06701600    0.07277200   -0.01584400
 C                 -0.28353900    0.61445700   -0.00484100
 O                 -0.51783100    1.78994500    0.01228500
 O                 -1.19373000   -0.35425900   -0.01026000
 C                 -2.56677300    0.08421500    0.00858600
 C                 -3.42738500   -1.15725300   -0.00410800
 H                 -2.72387300    0.68903100    0.90403400
 H                 -2.73958200    0.71854800   -0.86323900
 H                 -3.23722400   -1.74626700   -0.90205800
 H                 -3.22009000   -1.77611800    0.86962100
 H                 -4.48119000   -0.87414400    0.01063500
 O                  4.50477400   -0.60234100    0.09320800
 H                  4.58666300    0.22679300   -0.39295000

