%chk=ethyl_propiolate.chk 
%nprocshared=24 
%mem=12GB 
# ccsd(t)/6-311++g(d,p) sp 

Title Card Required

0 2
 C                  2.17521300   -0.40868900   -0.06089100
 H                  3.59680200   -0.96494100   -0.18961900
 C                  1.06968300    0.07099800   -0.01646300
 C                 -0.28226000    0.61408000   -0.00450600
 O                 -0.51728700    1.78951800    0.01223400
 O                 -1.19314800   -0.35425800   -0.01019200
 C                 -2.56645000    0.08424900    0.00857100
 C                 -3.42723600   -1.15721000   -0.00409200
 H                 -2.72357800    0.68911100    0.90398100
 H                 -2.73920700    0.71850300   -0.86331100
 H                 -3.23713300   -1.74628100   -0.90201000
 H                 -3.22005300   -1.77607400    0.86966000
 H                 -4.48100400   -0.87393900    0.01061400
 O                  4.50179700   -0.60330500    0.09078900
 H                  4.59405600    0.23409600   -0.38157500

