%chk=ethyl_propiolate.chk 
%nprocshared=24 
%mem=12GB 
# ccsd(t)/6-311++g(d,p) sp 

Title Card Required

0 2
 C                  2.59714200    0.35017700   -0.00000100
 H                  3.63881000    0.12953700    0.00000100
 C                  1.43398000    0.64940500   -0.00000300
 C                  0.01305600    0.95458200   -0.00000500
 O                 -0.44619100    2.06005400   -0.00001000
 O                 -0.70432100   -0.17565500    0.00000000
 C                 -2.13670700   -0.00082900   -0.00000100
 C                 -2.75578300   -1.37841900    0.00000500
 H                 -2.41225300    0.57804200    0.88361300
 H                 -2.41225300    0.57803400   -0.88361900
 H                 -2.45452900   -1.93748600   -0.88690500
 H                 -2.45452900   -1.93747900    0.88692000
 H                 -3.84341100   -1.29055600    0.00000500
 O                  2.32776700   -1.94993000    0.00001100
 H                  1.35503500   -1.92467500    0.00001000

