%chk=ethyl_propiolate.chk
# ccsd(t)/6-311++g(d,p) sp

Title Card Required

0 2
 C                 -2.24742800    0.92358500    0.61012800
 H                 -3.04179200    0.35809300    1.06405500
 C                 -1.11820800    0.64893000    0.00100000
 C                 -0.66918000   -0.79191100   -0.15694400
 O                 -1.45253700   -1.66088100   -0.40113600
 O                  0.63740500   -1.04951500   -0.04422100
 C                  1.53803900   -0.22411500    0.71755800
 C                  2.61506500    0.33327000   -0.18689000
 H                  0.98855300    0.56611000    1.23040700
 H                  1.96212700   -0.89080400    1.47033000
 H                  3.13281300   -0.47932400   -0.69856800
 H                  2.17904000    1.00163000   -0.92863400
 H                  3.34432200    0.88902400    0.40653700
 O                 -0.26359900    1.55771000   -0.55318100
 H                 -0.64494600    2.43820600   -0.46492700

