%chk=ethyl_propiolate.chk
# opt=(calcfc,tight,noeigentest) freq 6-311++g(d,p) m062x

Title Card Required

0 2
 C                 -2.27057700   -0.92122400   -0.58311700
 H                 -3.07372800   -0.34684600   -1.01388600
 C                 -1.11974300   -0.64921800   -0.00316900
 C                 -0.66630300    0.78933900    0.15183700
 O                 -1.45349000    1.66406600    0.39980000
 O                  0.64028700    1.05287800    0.03455900
 C                  1.54613200    0.22364200   -0.71652500
 C                  2.61456400   -0.33286200    0.20047000
 H                  0.99835400   -0.56950500   -1.23095200
 H                  1.97851800    0.88924300   -1.46849600
 H                  3.13045800    0.48129100    0.71523700
 H                  2.16941800   -0.99867500    0.94187000
 H                  3.34926100   -0.89367200   -0.38475700
 O                 -0.25359400   -1.56375900    0.52706400
 H                 -0.64234800   -2.44537200    0.45262000

