%chk=ethyl_propiolate.chk
%nprocshared=24
%mem=12GB
# opt=(calcfc,tight,noeigentest) freq 6-31+g m062x

Title Card Required

0 2
 O                  3.70427800    0.42792982    0.25483191
 H                  3.48349098    1.07929704   -0.41492464
 C                  2.65492010   -0.53951843    0.34310356
 H                  2.87766070   -1.54561318    0.63130487
 C                  1.37834136   -0.18210040    0.06173885
 C                 -0.07231668    0.22405530   -0.25799355
 O                 -0.33427904    1.40730071   -0.59692802
 O                 -1.02723010   -0.65632599   -0.17767651
 C                 -2.37426950   -0.27918176   -0.47457225
 C                 -3.06602281    0.20910515    0.81176101
 H                 -2.90305141   -1.12324152   -0.86553622
 H                 -2.37277840    0.50781254   -1.19951208
 H                 -4.07394739    0.49130397    0.58960825
 H                 -3.06751391   -0.57788915    1.53670083
 H                 -2.53724090    1.05316490    1.20272498

