%chk=ethyl_propiolate.chk
%nprocshared=24
%mem=12GB
# ccsd(t)/6-311++g** sp

Title Card Required

0 2
 O                  2.85561000    0.77024400    0.02052800
 H                  2.05089800    1.26128900   -0.22518800
 C                  2.50277400   -0.49497700    0.27970300
 H                  3.34636900   -1.11646200    0.56066000
 C                  1.26130200   -0.97047400    0.20919500
 C                  0.07440500   -0.22839700   -0.15266200
 O                  0.13470400    0.95748800   -0.43822100
 O                 -1.04865800   -0.93472100   -0.14972700
 C                 -2.25848300   -0.22611800   -0.48480800
 C                 -2.77689700    0.55872700    0.70420500
 H                 -2.95156800   -1.01154100   -0.78089700
 H                 -2.05982700    0.42439500   -1.33706800
 H                 -3.73116900    1.02335200    0.44848500
 H                 -2.93220300   -0.10242600    1.55807200
 H                 -2.07434600    1.34474200    0.98149200

