%chk=ethyl_propiolate.chk
%nprocshared=24
%mem=12GB
# opt=(calcfc,tight,noeigentest) freq 6-311++g(d,p) m062x

Title Card Required

0 2
 O                  2.87847900    0.77672100    0.02599800
 H                  2.09843900    1.32773600   -0.22292400
 C                  2.52157300   -0.51866500    0.27890300
 H                  3.37185900   -1.12945800    0.54988500
 C                  1.27050400   -0.98604300    0.20251300
 C                  0.09287100   -0.23863600   -0.14875200
 O                  0.15755400    0.98155800   -0.42854000
 O                 -1.05970900   -0.93476400   -0.15908300
 C                 -2.29791200   -0.21204900   -0.49705200
 C                 -2.81501600    0.54719400    0.71131900
 H                 -2.97411500   -1.00679700   -0.80812800
 H                 -2.08751800    0.45429500   -1.33642800
 H                 -3.77669500    1.01144500    0.47341700
 H                 -2.95849000   -0.13173600    1.55539100
 H                 -2.11618900    1.33558300    1.00020000

