%chk=ethyl_propiolate.chk
%nprocshared=4
%mem=1GB
# opt=(calcfc,tight,noeigentest) freq 6-311++g(d,p) m062x

Title Card Required

0 2
 C                 -1.85883900   -1.08957500   -0.18675200
 H                 -2.15747600   -2.11457500   -0.39062500
 C                 -0.59093400   -0.67847700   -0.30307100
 C                 -0.10013300    0.66581600   -0.05166200
 O                 -0.88153800    1.53724700    0.30381200
 O                  1.19019400    0.95142700   -0.21685000
 C                  2.09930000   -0.10381000   -0.56874600
 C                  2.56299500   -0.85546000    0.66457300
 H                  1.62155200   -0.77109500   -1.29448700
 H                  2.92826000    0.40664400   -1.06118000
 H                  3.01555000   -0.16541500    1.38055900
 H                  1.72509000   -1.36441300    1.14903400
 H                  3.30663600   -1.60709600    0.38523600
 O                 -2.88161700   -0.31380300    0.18268900
 H                 -2.53024900    0.58600600    0.34820400

