%chk=ethyl_propiolate.chk
%nprocshared=4
%mem=1GB
# opt=(calcfc,tight,noeigentest) freq 6-311++g(d,p) m062x

Title Card Required

0 2
 C                  1.74700800   -0.58306900   -1.26296400
 H                  2.38615500   -1.30447300   -1.74613800
 C                  1.17832800   -0.35645900   -0.09843900
 C                  0.35196300    0.89571900    0.12036800
 O                  0.77727200    1.98386400   -0.15767300
 O                 -0.85823900    0.74655000    0.67939400
 C                 -1.60735800   -0.46846800    0.50058300
 C                 -2.20749700   -0.52369100   -0.89239700
 H                 -0.97861700   -1.33568800    0.71267000
 H                 -2.38431800   -0.41282600    1.26471000
 H                 -2.82139100    0.36052600   -1.07935400
 H                 -1.42258000   -0.57147200   -1.65346500
 H                 -2.83451500   -1.41441200   -0.99264800
 O                  1.25814800   -1.13471200    1.03012500
 H                  1.86315500   -1.87145900    0.87654400

