%chk=ethyl_propiolate.chk
%nprocshared=24
%mem=12GB
# opt=(calcfc,tight,noeigentest) freq 6-31+g m062x

Title Card Required

0 2
 O                  3.66328900   -0.35712300    0.24944000
 H                  3.59274600   -1.33147900    0.23189000
 C                  2.45689200    0.27791100    0.10129700
 H                  2.56954300    1.35722800    0.12434500
 C                  1.28335400   -0.32253300   -0.05301000
 C                 -0.05493000    0.19535000   -0.22017100
 O                 -0.33257600    1.40095500   -0.25819700
 O                 -0.98445200   -0.78828900   -0.33790300
 C                 -2.38767200   -0.37980800   -0.50000400
 C                 -2.99600900   -0.01894800    0.84359300
 H                 -2.85677400   -1.25660700   -0.94433300
 H                 -2.42322100    0.45970500   -1.19813500
 H                 -4.05984600    0.20584500    0.72173200
 H                 -2.89669100   -0.85273100    1.54301700
 H                 -2.50566400    0.86187500    1.26454200

