%chk=ethyl_propiolate.chk
%nprocshared=4
%mem=1GB
# opt=(calcfc,tight,noeigentest) freq 6-311++g(d,p) m062x

Title Card Required

0 2
 C                  1.62960100   -1.14963200   -0.19864500
 H                  2.26257200   -1.97700000   -0.51914500
 C                  0.32135900   -1.26154500   -0.24290800
 C                 -1.04416200   -0.83219700    0.02868200
 O                 -1.84838200   -1.59785400    0.50416100
 O                 -1.42324900    0.40598300   -0.33762000
 C                 -0.44981300    1.40654300   -0.66632200
 C                 -0.00966200    2.14778300    0.58208300
 H                  0.39847400    0.95249800   -1.18743900
 H                 -0.96518800    2.07119800   -1.36236300
 H                 -0.87278400    2.59976500    1.07650600
 H                  0.48788500    1.46947800    1.28005500
 H                  0.69967700    2.93690100    0.31615800
 O                  2.28062200   -0.02691300    0.23012700
 H                  3.23349400   -0.16827500    0.20555800

