%chk=ethyl_propiolate.chk
%nprocshared=24
%mem=12GB
# ccsd(t)/6-311++g** sp

Title Card Required

0 2
 O                  3.63216200   -0.30245000    0.26140000
 H                  3.53487500   -1.26175900    0.26842600
 C                  2.42666300    0.26773000    0.09264400
 H                  2.47752400    1.35423200    0.07513700
 C                  1.27297600   -0.36266900   -0.04304100
 C                 -0.07080000    0.16466900   -0.22925600
 O                 -0.31760400    1.34365900   -0.30336700
 O                 -0.98510400   -0.80645300   -0.31207100
 C                 -2.35072500   -0.38368600   -0.48044200
 C                 -2.95658800    0.04755800    0.84127500
 H                 -2.85392600   -1.26044500   -0.88490300
 H                 -2.38159400    0.42322000   -1.21354200
 H                 -4.01114300    0.29242400    0.69969600
 H                 -2.88416700   -0.75783400    1.57386400
 H                 -2.44635300    0.93050300    1.22654500

