%chk=ethyl_propiolate_non_planar.chk
%mem=12GB
%nprocshared=24
# opt=(calcfc,tight,noeigentest) freq 6-31+g m062x

Title Card Required

0 2
 C                  2.67788400    0.73832900    0.26174000
 H                  2.79272100    1.80898100    0.27097300
 C                  1.66667200   -0.09796000    0.08754200
 C                  0.29030300    0.40882400   -0.16747900
 O                 -0.03959500    1.58913800   -0.24307800
 O                 -0.58367100   -0.63064600   -0.31562700
 C                 -2.00048900   -0.31321700   -0.55719900
 C                 -2.69511700    0.02848400    0.74801000
 H                 -2.39284500   -1.22062600   -1.01416500
 H                 -2.04128300    0.51441500   -1.26897900
 H                 -3.76087900    0.19606000    0.56657500
 H                 -2.59157700   -0.79066000    1.46378100
 H                 -2.27518700    0.93882300    1.18197300
 O                  1.83010100   -1.47168700    0.13151800
 H                  0.97885300   -1.92817600   -0.01835200

