%chk=ethyl_propiolate.chk 
%nprocshared=24 
%mem=12GB 
# ccsd(t)/6-311++g(d,p) sp 

Title Card Required

0 2
 C                  2.46924200    1.29438600   -0.67220800
 H                  3.09791200    2.09239300   -0.99267000
 C                  1.76854200    0.39118000   -0.31077400
 C                  0.98372500   -0.75493900    0.15151800
 O                  1.49178700   -1.78431800    0.47489000
 O                 -0.34901300   -0.59273000    0.19284200
 C                 -0.94695800    0.64997800   -0.19089600
 C                 -1.09696500    1.59340200    0.97395900
 H                 -0.41748300    1.08198100   -1.04154300
 H                 -1.95388400    0.37921000   -0.56856300
 H                 -1.62546900    1.10054900    1.79114200
 H                 -0.12087800    1.92905900    1.33191700
 H                 -1.67261300    2.46744500    0.66428100
 O                 -3.18326700   -0.49167000   -0.68209100
 H                 -2.75537400   -1.31215400   -0.37985600

