%chk=ethyl_propiolate.chk 
%nprocshared=24 
%mem=12GB 
# ccsd(t)/6-311++g(d,p) sp 

Title Card Required

0 2
 C                  1.26167500    2.24941900   -0.05942500
 H                  1.18655100    3.31182300   -0.07396800
 C                  1.35330000    1.05400000   -0.04252100
 C                  1.54534500   -0.39839100    0.00723300
 O                  2.59658600   -0.88300900    0.29971400
 O                  0.49066600   -1.16086900   -0.30383100
 C                 -0.79464200   -0.57219500   -0.55992700
 C                 -1.49607500   -0.26417000    0.74158300
 H                 -0.68439800    0.31940600   -1.17964200
 H                 -1.33112100   -1.32739900   -1.13143500
 H                 -1.64396000   -1.16045500    1.34406900
 H                 -0.97865400    0.50088900    1.32262300
 H                 -2.48226000    0.18313900    0.49787500
 O                 -3.84353500    0.39496000   -0.13313800
 H                 -4.32079600   -0.28983500    0.36526000

