%chk=ethyl_propiolate.chk 
%nprocshared=24 
%mem=12GB 
# ccsd(t)/6-311++g(d,p) sp 

Title Card Required

0 2
 C                  1.26125500    2.24953200   -0.05928600
 H                  1.18593400    3.31214900   -0.07437900
 C                  1.35294100    1.05414600   -0.04227600
 C                  1.54619600   -0.39652800    0.00813500
 O                  2.59548000   -0.88358600    0.29914000
 O                  0.48691700   -1.16019200   -0.30036100
 C                 -0.80019400   -0.57004700   -0.56402100
 C                 -1.50966900   -0.26506300    0.73051800
 H                 -0.68650100    0.32119200   -1.18213500
 H                 -1.33277100   -1.32760200   -1.13484600
 H                 -1.70289400   -1.14447100    1.34186200
 H                 -1.09817600    0.56828200    1.29753400
 H                 -2.77440300    0.19223000    0.32009200
 O                 -3.79536200    0.38571100   -0.11235600
 H                 -4.31042700   -0.27834000    0.36414900

