%chk=ethyl_propiolate.chk 
%nprocshared=24 
%mem=12GB 
# ccsd(t)/6-311++g(d,p) sp 

Title Card Required

0 2
 C                  1.26129600    2.24954200   -0.05929700
 H                  1.18598400    3.31207300   -0.07427000
 C                  1.35299400    1.05416300   -0.04229700
 C                  1.54578000   -0.39699000    0.00794300
 O                  2.59565900   -0.88350000    0.29922200
 O                  0.48740900   -1.16003800   -0.30076900
 C                 -0.79856700   -0.57068100   -0.56309400
 C                 -1.51554700   -0.26256600    0.72961100
 H                 -0.68618100    0.32075700   -1.18171600
 H                 -1.33219800   -1.32747100   -1.13433700
 H                 -1.68396800   -1.14676900    1.34307100
 H                 -1.07501100    0.55408800    1.30133100
 H                 -2.62271900    0.15774800    0.38641300
 O                 -3.80497200    0.38797000   -0.11670900
 H                 -4.30846300   -0.28376300    0.36862400

