%chk=ethyl_propiolate.chk 
%nprocshared=24 
%mem=12GB 
# ccsd(t)/6-311++g(d,p) sp 

Title Card Required

0 2
 C                  1.26151300    2.24949500   -0.05938100
 H                  1.18634500    3.31191700   -0.07406500
 C                  1.35316700    1.05409300   -0.04241700
 C                  1.54524600   -0.39801700    0.00749600
 O                  2.59622100   -0.88319000    0.29951800
 O                  0.48949400   -1.16039800   -0.30255100
 C                 -0.79567400   -0.57183500   -0.56088600
 C                 -1.50485400   -0.26332100    0.73634300
 H                 -0.68479200    0.31966000   -1.18053100
 H                 -1.33089500   -1.32755200   -1.13281400
 H                 -1.65295600   -1.15565400    1.34434000
 H                 -1.01097100    0.51897700    1.31448500
 H                 -2.50721100    0.16689400    0.46705500
 O                 -3.83046300    0.39282000   -0.12744400
 H                 -4.31633600   -0.28805600    0.36735300
 
