%chk=ethyl_propiolate.chk 
%nprocshared=24 
%mem=12GB 
# ccsd(t)/6-311++g(d,p) sp 

Title Card Required

0 2
 C                  1.26127900    2.24953800   -0.05929400
 H                  1.18595900    3.31210600   -0.07431500
 C                  1.35297300    1.05415600   -0.04228900
 C                  1.54594300   -0.39680900    0.00801700
 O                  2.59558600   -0.88353500    0.29918900
 O                  0.48719100   -1.16008200   -0.30059400
 C                 -0.79914900   -0.57045600   -0.56346600
 C                 -1.51420300   -0.26325600    0.72967100
 H                 -0.68633500    0.32092500   -1.18185000
 H                 -1.33243900   -1.32749700   -1.13449700
 H                 -1.69079800   -1.14583000    1.34265000
 H                 -1.08396500    0.55946000    1.29982600
 H                 -2.67282000    0.16793700    0.36378200
 O                 -3.80119000    0.38712300   -0.11505100
 H                 -4.30846000   -0.28212600    0.36749900

