%chk=ethyl_propiolate.chk 
%nprocshared=24 
%mem=12GB 
# ccsd(t)/6-311++g(d,p) sp 

Title Card Required

0 2
 C                  1.26142100    2.24952800   -0.05935200
 H                  1.18620600    3.31196800   -0.07412800
 C                  1.35309700    1.05413800   -0.04236600
 C                  1.54528900   -0.39773000    0.00764600
 O                  2.59601200   -0.88330300    0.29940900
 O                  0.48874100   -1.16016700   -0.30184600
 C                 -0.79648800   -0.57151300   -0.56153200
 C                 -1.51014300   -0.26272600    0.73333700
 H                 -0.68519600    0.31994700   -1.18102000
 H                 -1.33108500   -1.32755800   -1.13349600
 H                 -1.66086900   -1.15248200    1.34426200
 H                 -1.03249900    0.53065300    1.30962400
 H                 -2.52814700    0.15787900    0.44521200
 O                 -3.82189200    0.39130200   -0.12382000
 H                 -4.31318300   -0.28701200    0.36853900

