%nprocshared=4
%mem=150MW
%chk=ethyl_propiolate.chk
# irc=(calcfc,maxpoints=10,maxcycle=900,stepsize=5) 6-311++g(d,p)
geom=connectivity m062x

Title Card Required

0 2
 C                 -2.50463900    0.19455300   -1.14904100
 H                 -3.40512000    0.47812000   -1.64922400
 C                 -1.56111100    0.12844100   -0.29341300
 C                 -0.26245600   -0.58724500   -0.02571100
 O                 -0.18693500   -1.66187600    0.49740200
 O                  0.76045100    0.20329900   -0.32076500
 C                  2.05321100   -0.25648000    0.12350700
 C                  3.05830200    0.80255900   -0.26265900
 H                  2.00621800   -0.40967300    1.20366300
 H                  2.26026600   -1.21896500   -0.34835400
 H                  3.06854900    0.94736100   -1.34360700
 H                  2.81557600    1.75246900    0.21468100
 H                  4.05572000    0.49586000    0.05667200
 O                 -1.68606800    1.07307300    1.05308400
 H                 -2.47081400    0.71738700    1.48760000

 1 2 1.0 3 2.0
 2
 3 4 1.0
 4 5 2.0 6 1.5
 5
 6 7 1.0
 7 8 1.0 9 1.0 10 1.0
 8 11 1.0 12 1.0 13 1.0
 9
 10
 11
 12
 13
 14 15 1.0
 15

