%nprocshared=4
%mem=150MW
%chk=ethyl_propiolate.chk
# ccsd(t)/6-311++g(d,p) sp

Title Card Required

0 2
 C                  2.63033600    0.22911400    0.00000000
 H                  3.69381500    0.14338100    0.00000100
 C                  1.50419400    0.68736500   -0.00000300
 C                  0.08378700    1.00028900   -0.00000500
 O                 -0.37116200    2.10778400   -0.00001000
 O                 -0.63413400   -0.12791300    0.00000000
 C                 -2.06718000    0.04672100   -0.00000100
 C                 -2.68525800   -1.33127300    0.00000500
 H                 -2.34238800    0.62540800    0.88380600
 H                 -2.34238700    0.62540100   -0.88381400
 H                 -2.38347700   -1.89010900   -0.88679400
 H                 -2.38347700   -1.89010100    0.88680800
 H                 -3.77290800   -1.24362900    0.00000400
 O                  2.41629100   -1.77023700    0.00001000
 H                  1.44759400   -1.84071000    0.00001000

