%nprocshared=4
%mem=150MW
%chk=ethyl_propiolate.chk
# opt=(calcfc,tight,ts,noeigentest) freq 6-311++g(d,p) m062x

Title Card Required

0 2
 C                  2.63249100    0.21668700    0.00000900
 H                  3.69641300    0.11022200    0.00001800
 C                  1.51385800    0.70341400    0.00000300
 C                  0.09068800    1.00977600   -0.00000200
 O                 -0.38078500    2.11612800    0.00000100
 O                 -0.62007900   -0.12857800   -0.00000800
 C                 -2.04999200    0.04778200   -0.00000700
 C                 -2.66871900   -1.33186000    0.00001100
 H                 -2.32751100    0.62884800    0.88398600
 H                 -2.32751400    0.62882600   -0.88401400
 H                 -2.36403700   -1.89167700   -0.88772400
 H                 -2.36403000   -1.89165600    0.88775600
 H                 -3.75854600   -1.24827800    0.00001400
 O                  2.36889800   -1.78903100   -0.00000700
 H                  1.39099300   -1.79923200    0.00000000

