%chk=ethyl_propiolate.chk 
%nprocshared=24 
%mem=12GB 
# ccsd(t)/6-311++g(d,p) sp 

Title Card Required

0 2
 C                 -1.64929099   -0.31261679   -0.04562711
 H                 -2.94603399   -0.91451079    0.03482289
 C                 -0.61926599    0.32141521   -0.03511011
 C                  0.65469301    1.04920821    0.02256989
 O                  0.68740501    2.19807221    0.34800989
 O                  1.75624901    0.38062321   -0.31775511
 C                  1.71382701   -1.02700179   -0.61529311
 C                  1.76749501   -1.85146079    0.65528989
 H                  0.82599001   -1.25148279   -1.20920311
 H                  2.59525601   -1.19120079   -1.23302511
 H                  2.65388101   -1.59301779    1.23612389
 H                  0.88135701   -1.68235779    1.26918089
 H                  1.81145901   -2.91319779    0.40473089
 O                 -3.95550199   -0.61929179   -0.08160311
 H                 -4.06328799    0.12446721    0.52865889

