%chk=ethyl_propiolate.chk
%nprocshared=24
%mem=12GB
# ccsd(t)/6-311++g(d,p) sp

Title Card Required

0 2
 O                  4.49664800   -0.26771700    0.33313000
 H                  4.54062800    0.63210300   -0.02253700
 C                  2.19988900   -0.32401000   -0.06442100
 H                  3.56534500   -0.64950700   -0.04219800
 C                  1.04143500    0.01339200   -0.09372600
 C                 -0.36586900    0.38988900   -0.17738300
 O                 -0.75196100    1.51853300   -0.05069900
 O                 -1.13458300   -0.67026900   -0.41244800
 C                 -2.55352000   -0.41971500   -0.49769900
 C                 -3.16815700   -0.29737300    0.88256100
 H                 -2.94035300   -1.28241500   -1.03682900
 H                 -2.71350900    0.48234500   -1.08931100
 H                 -4.25004500   -0.18371900    0.79117000
 H                 -2.96297600   -1.19270000    1.47112000
 H                 -2.77384600    0.57457100    1.40464700

