%chk=ethyl_propiolate.chk
%nprocshared=24
%mem=12GB
# irc=(calcfc,maxpoints=10,maxcycle=900,stepsize=5) 6-311++g(d,p) m062x

Title Card Required

0 2
 O                  4.49897600   -0.26684600    0.33577400
 H                  4.53371500    0.62459300   -0.03467800
 C                  2.19477100   -0.32310100   -0.06342200
 H                  3.68037100   -0.69407300   -0.08398600
 C                  1.03759100    0.01555200   -0.09301000
 C                 -0.36759200    0.38991800   -0.17801400
 O                 -0.75225200    1.51877000   -0.05063500
 O                 -1.13503300   -0.67035200   -0.41256500
 C                 -2.55387500   -0.41982700   -0.49775100
 C                 -3.16819400   -0.29736700    0.88258200
 H                 -2.94074200   -1.28251200   -1.03682200
 H                 -2.71373900    0.48222100   -1.08941700
 H                 -4.25007000   -0.18369000    0.79125700
 H                 -2.96301000   -1.19267000    1.47116400
 H                 -2.77388000    0.57460800    1.40461200

