%nprocshared=24
%mem=12GB
%chk=ethyl_propiolate_ts1.chk
# ccsd(t)/6-311++g(d,p) sp

Title Card Required

0 2
O        4.55805100     -0.25368000      0.32208700
H        4.59876000      0.64307300     -0.03847700
C        2.25869200     -0.31008700     -0.07592800
H        3.67465600     -0.65137800     -0.06711500
C        1.10073500      0.02768300     -0.10531500
C       -0.30578500      0.40313200     -0.18948400
O       -0.69140100      1.53181800     -0.06253200
O       -1.07385300     -0.65712000     -0.42434300
C       -2.49280400     -0.40673500     -0.50957600
C       -3.10733800     -0.28442800      0.87070800
H       -2.87952800     -1.26946900     -1.04869800
H       -2.65282900      0.49530500     -1.10120800
H       -4.18923100     -0.17089000      0.77932900
H       -2.90206300     -1.17973200      1.45926500
H       -2.71313600      0.58756600      1.39279200

