%nprocshared=24
%mem=12GB
%chk=ethyl_propiolate_ts1.chk
# ccsd(t)/6-311++g(d,p) sp

Title Card Required

0 2
O        4.55883300     -0.25172600      0.32425700
H        4.59535400      0.64128700     -0.04333600
C        2.25638400     -0.30905500     -0.07480100
H        3.71937900     -0.66935100     -0.08448300
C        1.09883600      0.02893300     -0.10469400
C       -0.30690900      0.40312300     -0.18988000
O       -0.69224900      1.53188900     -0.06350500
O       -1.07417200     -0.65754400     -0.42387100
C       -2.49312900     -0.40758600     -0.50944600
C       -3.10774600     -0.28438300      0.87069800
H       -2.87958800     -1.27080500     -1.04796300
H       -2.65325300      0.49397800     -1.10177600
H       -4.18965100     -0.17116500      0.77912300
H       -2.90232500     -1.17919200      1.45994900
H       -2.71382700      0.58810400      1.39217200

