%chk=ethyl_propiolate.chk
%nprocshared=24
%mem=12GB
# freq 6-311++g(d,p) m062x

Title Card Required

0 2
 O                  4.50098200   -0.26605500    0.33794000
 H                  4.52966800    0.61962700   -0.04417700
 C                  2.19194800   -0.32250900   -0.06254800
 H                  3.74261700   -0.72547000   -0.11842100
 C                  1.03535000    0.01663200   -0.09260100
 C                 -0.36859000    0.39008500   -0.17835900
 O                 -0.75266600    1.51901900   -0.05061100
 O                 -1.13545600   -0.67042100   -0.41268000
 C                 -2.55413000   -0.41991000   -0.49779600
 C                 -3.16824500   -0.29736700    0.88259700
 H                 -2.94113800   -1.28256000   -1.03682100
 H                 -2.71399400    0.48215500   -1.08945100
 H                 -4.25012700   -0.18367200    0.79138000
 H                 -2.96302000   -1.19266000    1.47118300
 H                 -2.77385700    0.57461300    1.40456000

