%nprocshared=24
%mem=12GB
%chk=ethyl_propiolate_ts1.chk
# freq 6-311++g(d,p) m062x

Title Card Required

0 2
O        4.55789800     -0.25575300      0.32044000
H        4.60332500      0.64550900     -0.03310600
C        2.26214100     -0.31158800     -0.07683700
H        3.60141300     -0.63059000     -0.04984900
C        1.10348300      0.02585400     -0.10596100
C       -0.30412100      0.40309800     -0.18920600
O       -0.69026100      1.53175700     -0.06233800
O       -1.07333600     -0.65684600     -0.42458200
C       -2.49222000     -0.40596400     -0.50968700
C       -3.10679600     -0.28383800      0.87063200
H       -2.87928600     -1.26846000     -1.04899200
H       -2.65209300      0.49626900     -1.10106500
H       -4.18866900     -0.16992400      0.77933700
H       -2.90176200     -1.17934100      1.45897800
H       -2.71225700      0.58790100      1.39289200

