%chk=ethyl_propiolate.chk
%nprocshared=24
%mem=12GB
# irc=(calcfc,maxpoints=10,maxcycle=900,stepsize=5) 6-311++g(d,p) m062x

Title Card Required

0 2
 O                  4.50031000   -0.26681700    0.33319300
 H                  4.54735200    0.63961900   -0.01552500
 C                  2.20411900   -0.32517800   -0.06523500
 H                  3.38143300   -0.63358900   -0.03989400
 C                  1.04491400    0.01117700   -0.09433300
 C                 -0.36412500    0.39007200   -0.17680500
 O                 -0.75203300    1.51850500   -0.05077000
 O                 -1.13441300   -0.67025900   -0.41239800
 C                 -2.55322900   -0.41966000   -0.49766700
 C                 -3.16815500   -0.29735300    0.88255000
 H                 -2.94024300   -1.28237400   -1.03677200
 H                 -2.71346800    0.48242100   -1.08920000
 H                 -4.25008100   -0.18371200    0.79118700
 H                 -2.96291900   -1.19266500    1.47114700
 H                 -2.77374700    0.57458300    1.40456700

