%chk=ethyl_propiolate.chk
%nprocshared=24
%mem=12GB
# ccsd(t)/6-311++g(d,p) sp

Title Card Required

0 2
 O                  4.49833200   -0.26707600    0.33512600
 H                  4.53512500    0.62618700   -0.03183100
 C                  2.19580900   -0.32329000   -0.06366300
 H                  3.65867300   -0.68410500   -0.07380000
 C                  1.03837900    0.01513500   -0.09315700
 C                 -0.36724300    0.38989200   -0.17788500
 O                 -0.75216000    1.51870600   -0.05064800
 O                 -1.13491900   -0.67033100   -0.41253400
 C                 -2.55379700   -0.41980100   -0.49773800
 C                 -3.16818400   -0.29736700    0.88257700
 H                 -2.94063900   -1.28249400   -1.03682200
 H                 -2.71367700    0.48224500   -1.08940000
 H                 -4.25006100   -0.18369400    0.79122900
 H                 -2.96300600   -1.19267300    1.47115800
 H                 -2.77388100    0.57460400    1.40462300

