%nprocshared=24
%mem=12GB
%chk=ethyl_propiolate_ts1.chk
# freq 6-311++g(d,p) m062x

Title Card Required

0 2
O        4.55932600     -0.25071600      0.32534000
H        4.59370100      0.64035500     -0.04603200
C        2.25522400     -0.30850800     -0.07423200
H        3.74100900     -0.67877700     -0.09413000
C        1.09788500      0.02955000     -0.10439100
C       -0.30746400      0.40314300     -0.19004900
O       -0.69269700      1.53193900     -0.06391700
O       -1.07434400     -0.65774400     -0.42364300
C       -2.49329200     -0.40799900     -0.50935700
C       -3.10793100     -0.28440300      0.87073200
H       -2.87963600     -1.27143200     -1.04760400
H       -2.65348300      0.49335500     -1.10199100
H       -4.18984500     -0.17134800      0.77908400
H       -2.90242300     -1.17899400      1.46028300
H       -2.71414100      0.58830600      1.39192900

