%nprocshared=24
%mem=12GB
%chk=ethyl_propiolate_ts1.chk
# freq 6-311++g(d,p) m062x

Title Card Required

0 2
O        4.56056100     -0.25676900      0.32073200
H        4.60811800      0.64833000     -0.02900900
C        2.26552700     -0.31312900     -0.07711400
H        3.49619200     -0.62167900     -0.04764300
C        1.10635800      0.02407300     -0.10629900
C       -0.30214800      0.40312600     -0.18904500
O       -0.68897200      1.53182000     -0.06285600
O       -1.07258200     -0.65672700     -0.42450700
C       -2.49131400     -0.40539000     -0.50977500
C       -3.10610200     -0.28274700      0.87045100
H       -2.87872200     -1.26790000     -1.04888400
H       -2.65100300      0.49676400     -1.10133700
H       -4.18795600     -0.16852600      0.77907400
H       -2.90135900     -1.17816700      1.45904400
H       -2.71126400      0.58898500      1.39248700

