%chk=ethyl_propiolate.chk 
%nprocshared=24 
%mem=12GB 
# ccsd(t)/6-311++g(d,p) sp 

Title Card Required

0 2
 C                  2.91444900    1.31157200    0.31915400
 H                  3.67759400    2.03834800    0.47373400
 C                  2.05813300    0.49213000    0.14456200
 C                  1.05049000   -0.53048500   -0.09332200
 O                  1.27969600   -1.61073800   -0.55550500
 O                 -0.16391700   -0.10012000    0.27071000
 C                 -1.24415500   -1.03119300    0.04934000
 C                 -2.49024300   -0.39254800    0.59644200
 H                 -1.31804800   -1.22362900   -1.02289300
 H                 -1.00281000   -1.97018200    0.55238000
 H                 -2.42405800   -0.18420200    1.66385300
 H                 -2.66047600    0.60036100    0.07671600
 H                 -3.37892300   -0.98133000    0.36800000
 O                 -2.29931400    1.81701500   -0.58971600
 H                 -1.36080600    1.82662500   -0.33135000

