%chk=ethyl_propiolate.chk 
%nprocshared=24 
%mem=12GB 
# ccsd(t)/6-311++g(d,p) sp 

Title Card Required

0 2
 C                  2.91432000    1.31143300    0.31914700
 H                  3.67721700    2.03859900    0.47356800
 C                  2.05794900    0.49207200    0.14458500
 C                  1.05108300   -0.53054600   -0.09340000
 O                  1.27939700   -1.61090000   -0.55550000
 O                 -0.16400300   -0.10082000    0.27136000
 C                 -1.24397100   -1.02771800    0.04808700
 C                 -2.48571200   -0.39275300    0.59522100
 H                 -1.31901000   -1.22499900   -1.02322100
 H                 -1.00940200   -1.96974700    0.55521100
 H                 -2.42874600   -0.13864300    1.65195700
 H                 -2.58282100    0.80021400   -0.03309600
 H                 -3.39645800   -0.92762600    0.33402200
 O                 -2.30518600    1.79627500   -0.57852100
 H                 -1.36817800    1.83687600   -0.33676000

